  Element nb      COORD1      COORD2         S11         S22         S33         S12         E11         E22         E33         E12
           1  6.9613E-01  2.4509E+00  0.0000E+00  0.0000E+00  0.0000E+00  0.0000E+00  0.0000E+00  0.0000E+00  0.0000E+00  0.0000E+00
           1  6.9331E-01  2.3167E+00  0.0000E+00  0.0000E+00  0.0000E+00  0.0000E+00  0.0000E+00  0.0000E+00  0.0000E+00  0.0000E+00
           1  5.5206E-01  2.4521E+00  0.0000E+00  0.0000E+00  0.0000E+00  0.0000E+00  0.0000E+00  0.0000E+00  0.0000E+00  0.0000E+00
           1  5.4996E-01  2.3214E+00  0.0000E+00  0.0000E+00  0.0000E+00  0.0000E+00  0.0000E+00  0.0000E+00  0.0000E+00  0.0000E+00
  Element nb      COORD1      COORD2         S11         S22         S33         S12         E11         E22         E33         E12
           2  4.4658E-01  2.4531E+00  0.0000E+00  0.0000E+00  0.0000E+00  0.0000E+00  0.0000E+00  0.0000E+00  0.0000E+00  0.0000E+00
           2  4.4496E-01  2.3251E+00  0.0000E+00  0.0000E+00  0.0000E+00  0.0000E+00  0.0000E+00  0.0000E+00  0.0000E+00  0.0000E+00
           2  3.0246E-01  2.4546E+00  0.0000E+00  0.0000E+00  0.0000E+00  0.0000E+00  0.0000E+00  0.0000E+00  0.0000E+00  0.0000E+00
           2  3.0144E-01  2.3306E+00  0.0000E+00  0.0000E+00  0.0000E+00  0.0000E+00  0.0000E+00  0.0000E+00  0.0000E+00  0.0000E+00
  Element nb      COORD1      COORD2         S11         S22         S33         S12         E11         E22         E33         E12
           3  1.9694E-01  2.4557E+00  0.0000E+00  0.0000E+00  0.0000E+00  0.0000E+00  0.0000E+00  0.0000E+00  0.0000E+00  0.0000E+00
           3  1.9631E-01  2.3347E+00  0.0000E+00  0.0000E+00  0.0000E+00  0.0000E+00  0.0000E+00  0.0000E+00  0.0000E+00  0.0000E+00
           3  5.2769E-02  2.4572E+00  0.0000E+00  0.0000E+00  0.0000E+00  0.0000E+00  0.0000E+00  0.0000E+00  0.0000E+00  0.0000E+00
           3  5.2600E-02  2.3402E+00  0.0000E+00  0.0000E+00  0.0000E+00  0.0000E+00  0.0000E+00  0.0000E+00  0.0000E+00  0.0000E+00
  Element nb      COORD1      COORD2         S11         S22         S33         S12         E11         E22         E33         E12
           4  6.9117E-01  2.2183E+00  0.0000E+00  0.0000E+00  0.0000E+00  0.0000E+00  0.0000E+00  0.0000E+00  0.0000E+00  0.0000E+00
           4  6.8817E-01  2.0837E+00  0.0000E+00  0.0000E+00  0.0000E+00  0.0000E+00  0.0000E+00  0.0000E+00  0.0000E+00  0.0000E+00
           4  5.4837E-01  2.2256E+00  0.0000E+00  0.0000E+00  0.0000E+00  0.0000E+00  0.0000E+00  0.0000E+00  0.0000E+00  0.0000E+00
           4  5.4612E-01  2.0946E+00  0.0000E+00  0.0000E+00  0.0000E+00  0.0000E+00  0.0000E+00  0.0000E+00  0.0000E+00  0.0000E+00
  Element nb      COORD1      COORD2         S11         S22         S33         S12         E11         E22         E33         E12
           5  4.4373E-01  2.2313E+00  0.0000E+00  0.0000E+00  0.0000E+00  0.0000E+00  0.0000E+00  0.0000E+00  0.0000E+00  0.0000E+00
           5  4.4199E-01  2.1032E+00  0.0000E+00  0.0000E+00  0.0000E+00  0.0000E+00  0.0000E+00  0.0000E+00  0.0000E+00  0.0000E+00
           5  3.0065E-01  2.2398E+00  0.0000E+00  0.0000E+00  0.0000E+00  0.0000E+00  0.0000E+00  0.0000E+00  0.0000E+00  0.0000E+00
           5  2.9953E-01  2.1157E+00  0.0000E+00  0.0000E+00  0.0000E+00  0.0000E+00  0.0000E+00  0.0000E+00  0.0000E+00  0.0000E+00
  Element nb      COORD1      COORD2         S11         S22         S33         S12         E11         E22         E33         E12
           6  1.9582E-01  2.2460E+00  0.0000E+00  0.0000E+00  0.0000E+00  0.0000E+00  0.0000E+00  0.0000E+00  0.0000E+00  0.0000E+00
           6  1.9511E-01  2.1249E+00  0.0000E+00  0.0000E+00  0.0000E+00  0.0000E+00  0.0000E+00  0.0000E+00  0.0000E+00  0.0000E+00
           6  5.2469E-02  2.2546E+00  0.0000E+00  0.0000E+00  0.0000E+00  0.0000E+00  0.0000E+00  0.0000E+00  0.0000E+00  0.0000E+00
           6  5.2280E-02  2.1376E+00  0.0000E+00  0.0000E+00  0.0000E+00  0.0000E+00  0.0000E+00  0.0000E+00  0.0000E+00  0.0000E+00
  Element nb      COORD1      COORD2         S11         S22         S33         S12         E11         E22         E33         E12
           7  6.8592E-01  1.9850E+00  0.0000E+00  0.0000E+00  0.0000E+00  0.0000E+00  0.0000E+00  0.0000E+00  0.0000E+00  0.0000E+00
           7  6.8280E-01  1.8499E+00  0.0000E+00  0.0000E+00  0.0000E+00  0.0000E+00  0.0000E+00  0.0000E+00  0.0000E+00  0.0000E+00
           7  5.4444E-01  1.9987E+00  0.0000E+00  0.0000E+00  0.0000E+00  0.0000E+00  0.0000E+00  0.0000E+00  0.0000E+00  0.0000E+00
           7  5.4210E-01  1.8675E+00  0.0000E+00  0.0000E+00  0.0000E+00  0.0000E+00  0.0000E+00  0.0000E+00  0.0000E+00  0.0000E+00
  Element nb      COORD1      COORD2         S11         S22         S33         S12         E11         E22         E33         E12
           8  4.4068E-01  2.0094E+00  0.0000E+00  0.0000E+00  0.0000E+00  0.0000E+00  0.0000E+00  0.0000E+00  0.0000E+00  0.0000E+00
           8  4.3886E-01  1.8811E+00  0.0000E+00  0.0000E+00  0.0000E+00  0.0000E+00  0.0000E+00  0.0000E+00  0.0000E+00  0.0000E+00
           8  2.9869E-01  2.0249E+00  0.0000E+00  0.0000E+00  0.0000E+00  0.0000E+00  0.0000E+00  0.0000E+00  0.0000E+00  0.0000E+00
           8  2.9751E-01  1.9007E+00  0.0000E+00  0.0000E+00  0.0000E+00  0.0000E+00  0.0000E+00  0.0000E+00  0.0000E+00  0.0000E+00
  Element nb      COORD1      COORD2         S11         S22         S33         S12         E11         E22         E33         E12
           9  1.9458E-01  2.0363E+00  0.0000E+00  0.0000E+00  0.0000E+00  0.0000E+00  0.0000E+00  0.0000E+00  0.0000E+00  0.0000E+00
           9  1.9383E-01  1.9152E+00  0.0000E+00  0.0000E+00  0.0000E+00  0.0000E+00  0.0000E+00  0.0000E+00  0.0000E+00  0.0000E+00
           9  5.2137E-02  2.0520E+00  0.0000E+00  0.0000E+00  0.0000E+00  0.0000E+00  0.0000E+00  0.0000E+00  0.0000E+00  0.0000E+00
           9  5.1937E-02  1.9350E+00  0.0000E+00  0.0000E+00  0.0000E+00  0.0000E+00  0.0000E+00  0.0000E+00  0.0000E+00  0.0000E+00
  Element nb      COORD1      COORD2         S11         S22         S33         S12         E11         E22         E33         E12
          10  6.8050E-01  1.7511E+00  0.0000E+00  0.0000E+00  0.0000E+00  0.0000E+00  0.0000E+00  0.0000E+00  0.0000E+00  0.0000E+00
          10  6.7736E-01  1.6159E+00  0.0000E+00  0.0000E+00  0.0000E+00  0.0000E+00  0.0000E+00  0.0000E+00  0.0000E+00  0.0000E+00
          10  5.4038E-01  1.7714E+00  0.0000E+00  0.0000E+00  0.0000E+00  0.0000E+00  0.0000E+00  0.0000E+00  0.0000E+00  0.0000E+00
          10  5.3800E-01  1.6401E+00  0.0000E+00  0.0000E+00  0.0000E+00  0.0000E+00  0.0000E+00  0.0000E+00  0.0000E+00  0.0000E+00
  Element nb      COORD1      COORD2         S11         S22         S33         S12         E11         E22         E33         E12
          11  4.3752E-01  1.7872E+00  0.0000E+00  0.0000E+00  0.0000E+00  0.0000E+00  0.0000E+00  0.0000E+00  0.0000E+00  0.0000E+00
          11  4.3566E-01  1.6588E+00  0.0000E+00  0.0000E+00  0.0000E+00  0.0000E+00  0.0000E+00  0.0000E+00  0.0000E+00  0.0000E+00
          11  2.9663E-01  1.8098E+00  0.0000E+00  0.0000E+00  0.0000E+00  0.0000E+00  0.0000E+00  0.0000E+00  0.0000E+00  0.0000E+00
          11  2.9542E-01  1.6856E+00  0.0000E+00  0.0000E+00  0.0000E+00  0.0000E+00  0.0000E+00  0.0000E+00  0.0000E+00  0.0000E+00
  Element nb      COORD1      COORD2         S11         S22         S33         S12         E11         E22         E33         E12
          12  1.9328E-01  1.8265E+00  0.0000E+00  0.0000E+00  0.0000E+00  0.0000E+00  0.0000E+00  0.0000E+00  0.0000E+00  0.0000E+00
          12  1.9251E-01  1.7053E+00  0.0000E+00  0.0000E+00  0.0000E+00  0.0000E+00  0.0000E+00  0.0000E+00  0.0000E+00  0.0000E+00
          12  5.1788E-02  1.8494E+00  0.0000E+00  0.0000E+00  0.0000E+00  0.0000E+00  0.0000E+00  0.0000E+00  0.0000E+00  0.0000E+00
          12  5.1583E-02  1.7324E+00  0.0000E+00  0.0000E+00  0.0000E+00  0.0000E+00  0.0000E+00  0.0000E+00  0.0000E+00  0.0000E+00
  Element nb      COORD1      COORD2         S11         S22         S33         S12         E11         E22         E33         E12
          13  6.7507E-01  1.5168E+00  0.0000E+00  0.0000E+00  0.0000E+00  0.0000E+00  0.0000E+00  0.0000E+00  0.0000E+00  0.0000E+00
          13  6.7195E-01  1.3814E+00  0.0000E+00  0.0000E+00  0.0000E+00  0.0000E+00  0.0000E+00  0.0000E+00  0.0000E+00  0.0000E+00
          13  5.3627E-01  1.5439E+00  0.0000E+00  0.0000E+00  0.0000E+00  0.0000E+00  0.0000E+00  0.0000E+00  0.0000E+00  0.0000E+00
          13  5.3390E-01  1.4124E+00  0.0000E+00  0.0000E+00  0.0000E+00  0.0000E+00  0.0000E+00  0.0000E+00  0.0000E+00  0.0000E+00
  Element nb      COORD1      COORD2         S11         S22         S33         S12         E11         E22         E33         E12
          14  4.3431E-01  1.5648E+00  0.0000E+00  0.0000E+00  0.0000E+00  0.0000E+00  0.0000E+00  0.0000E+00  0.0000E+00  0.0000E+00
          14  4.3245E-01  1.4363E+00  0.0000E+00  0.0000E+00  0.0000E+00  0.0000E+00  0.0000E+00  0.0000E+00  0.0000E+00  0.0000E+00
          14  2.9454E-01  1.5946E+00  0.0000E+00  0.0000E+00  0.0000E+00  0.0000E+00  0.0000E+00  0.0000E+00  0.0000E+00  0.0000E+00
          14  2.9332E-01  1.4703E+00  0.0000E+00  0.0000E+00  0.0000E+00  0.0000E+00  0.0000E+00  0.0000E+00  0.0000E+00  0.0000E+00
  Element nb      COORD1      COORD2         S11         S22         S33         S12         E11         E22         E33         E12
          15  1.9195E-01  1.6166E+00  0.0000E+00  0.0000E+00  0.0000E+00  0.0000E+00  0.0000E+00  0.0000E+00  0.0000E+00  0.0000E+00
          15  1.9117E-01  1.4953E+00  0.0000E+00  0.0000E+00  0.0000E+00  0.0000E+00  0.0000E+00  0.0000E+00  0.0000E+00  0.0000E+00
          15  5.1432E-02  1.6467E+00  0.0000E+00  0.0000E+00  0.0000E+00  0.0000E+00  0.0000E+00  0.0000E+00  0.0000E+00  0.0000E+00
          15  5.1225E-02  1.5297E+00  0.0000E+00  0.0000E+00  0.0000E+00  0.0000E+00  0.0000E+00  0.0000E+00  0.0000E+00  0.0000E+00
  Element nb      COORD1      COORD2         S11         S22         S33         S12         E11         E22         E33         E12
          16  6.6963E-01  1.2821E+00  0.0000E+00  0.0000E+00  0.0000E+00  0.0000E+00  0.0000E+00  0.0000E+00  0.0000E+00  0.0000E+00
          16  6.6640E-01  1.1462E+00  0.0000E+00  0.0000E+00  0.0000E+00  0.0000E+00  0.0000E+00  0.0000E+00  0.0000E+00  0.0000E+00
          16  5.3205E-01  1.3161E+00  0.0000E+00  0.0000E+00  0.0000E+00  0.0000E+00  0.0000E+00  0.0000E+00  0.0000E+00  0.0000E+00
          16  5.2934E-01  1.1844E+00  0.0000E+00  0.0000E+00  0.0000E+00  0.0000E+00  0.0000E+00  0.0000E+00  0.0000E+00  0.0000E+00
  Element nb      COORD1      COORD2         S11         S22         S33         S12         E11         E22         E33         E12
          17  4.3093E-01  1.3422E+00  0.0000E+00  0.0000E+00  0.0000E+00  0.0000E+00  0.0000E+00  0.0000E+00  0.0000E+00  0.0000E+00
          17  4.2863E-01  1.2136E+00  0.0000E+00  0.0000E+00  0.0000E+00  0.0000E+00  0.0000E+00  0.0000E+00  0.0000E+00  0.0000E+00
          17  2.9225E-01  1.3793E+00  0.0000E+00  0.0000E+00  0.0000E+00  0.0000E+00  0.0000E+00  0.0000E+00  0.0000E+00  0.0000E+00
          17  2.9052E-01  1.2551E+00  0.0000E+00  0.0000E+00  0.0000E+00  0.0000E+00  0.0000E+00  0.0000E+00  0.0000E+00  0.0000E+00
  Element nb      COORD1      COORD2         S11         S22         S33         S12         E11         E22         E33         E12
          18  1.9045E-01  1.4066E+00  0.0000E+00  0.0000E+00  0.0000E+00  0.0000E+00  0.0000E+00  0.0000E+00  0.0000E+00  0.0000E+00
          18  1.8926E-01  1.2855E+00  0.0000E+00  0.0000E+00  0.0000E+00  0.0000E+00  0.0000E+00  0.0000E+00  0.0000E+00  0.0000E+00
          18  5.1032E-02  1.4440E+00  0.0000E+00  0.0000E+00  0.0000E+00  0.0000E+00  0.0000E+00  0.0000E+00  0.0000E+00  0.0000E+00
          18  5.0711E-02  1.3271E+00  0.0000E+00  0.0000E+00  0.0000E+00  0.0000E+00  0.0000E+00  0.0000E+00  0.0000E+00  0.0000E+00
  Element nb      COORD1      COORD2         S11         S22         S33         S12         E11         E22         E33         E12
          19  6.6376E-01  1.0462E+00  0.0000E+00  0.0000E+00  0.0000E+00  0.0000E+00  0.0000E+00  0.0000E+00  0.0000E+00  0.0000E+00
          19  6.5976E-01  9.0903E-01  0.0000E+00  0.0000E+00  0.0000E+00  0.0000E+00  0.0000E+00  0.0000E+00  0.0000E+00  0.0000E+00
          19  5.2685E-01  1.0880E+00  0.0000E+00  0.0000E+00  0.0000E+00  0.0000E+00  0.0000E+00  0.0000E+00  0.0000E+00  0.0000E+00
          19  5.2272E-01  9.5633E-01  0.0000E+00  0.0000E+00  0.0000E+00  0.0000E+00  0.0000E+00  0.0000E+00  0.0000E+00  0.0000E+00
  Element nb      COORD1      COORD2         S11         S22         S33         S12         E11         E22         E33         E12
          20  4.2637E-01  1.1197E+00  0.0000E+00  0.0000E+00  0.0000E+00  0.0000E+00  0.0000E+00  0.0000E+00  0.0000E+00  0.0000E+00
          20  4.2249E-01  9.9184E-01  0.0000E+00  0.0000E+00  0.0000E+00  0.0000E+00  0.0000E+00  0.0000E+00  0.0000E+00  0.0000E+00
          20  2.8876E-01  1.1646E+00  0.0000E+00  0.0000E+00  0.0000E+00  0.0000E+00  0.0000E+00  0.0000E+00  0.0000E+00  0.0000E+00
          20  2.8569E-01  1.0416E+00  0.0000E+00  0.0000E+00  0.0000E+00  0.0000E+00  0.0000E+00  0.0000E+00  0.0000E+00  0.0000E+00
  Element nb      COORD1      COORD2         S11         S22         S33         S12         E11         E22         E33         E12
          21  1.8802E-01  1.1973E+00  0.0000E+00  0.0000E+00  0.0000E+00  0.0000E+00  0.0000E+00  0.0000E+00  0.0000E+00  0.0000E+00
          21  1.8582E-01  1.0772E+00  0.0000E+00  0.0000E+00  0.0000E+00  0.0000E+00  0.0000E+00  0.0000E+00  0.0000E+00  0.0000E+00
          21  5.0379E-02  1.2415E+00  0.0000E+00  0.0000E+00  0.0000E+00  0.0000E+00  0.0000E+00  0.0000E+00  0.0000E+00  0.0000E+00
          21  4.9791E-02  1.1248E+00  0.0000E+00  0.0000E+00  0.0000E+00  0.0000E+00  0.0000E+00  0.0000E+00  0.0000E+00  0.0000E+00
  Element nb      COORD1      COORD2         S11         S22         S33         S12         E11         E22         E33         E12
          22  6.5623E-01  8.0721E-01  0.0000E+00  0.0000E+00  0.0000E+00  0.0000E+00  0.0000E+00  0.0000E+00  0.0000E+00  0.0000E+00
          22  6.5058E-01  6.6620E-01  0.0000E+00  0.0000E+00  0.0000E+00  0.0000E+00  0.0000E+00  0.0000E+00  0.0000E+00  0.0000E+00
          22  5.1888E-01  8.6028E-01  0.0000E+00  0.0000E+00  0.0000E+00  0.0000E+00  0.0000E+00  0.0000E+00  0.0000E+00  0.0000E+00
          22  5.1252E-01  7.2952E-01  0.0000E+00  0.0000E+00  0.0000E+00  0.0000E+00  0.0000E+00  0.0000E+00  0.0000E+00  0.0000E+00
  Element nb      COORD1      COORD2         S11         S22         S33         S12         E11         E22         E33         E12
          23  4.1882E-01  8.9929E-01  0.0000E+00  0.0000E+00  0.0000E+00  0.0000E+00  0.0000E+00  0.0000E+00  0.0000E+00  0.0000E+00
          23  4.1267E-01  7.7431E-01  0.0000E+00  0.0000E+00  0.0000E+00  0.0000E+00  0.0000E+00  0.0000E+00  0.0000E+00  0.0000E+00
          23  2.8279E-01  9.5279E-01  0.0000E+00  0.0000E+00  0.0000E+00  0.0000E+00  0.0000E+00  0.0000E+00  0.0000E+00  0.0000E+00
          23  2.7795E-01  8.3336E-01  0.0000E+00  0.0000E+00  0.0000E+00  0.0000E+00  0.0000E+00  0.0000E+00  0.0000E+00  0.0000E+00
  Element nb      COORD1      COORD2         S11         S22         S33         S12         E11         E22         E33         E12
          24  1.8376E-01  9.9042E-01  0.0000E+00  0.0000E+00  0.0000E+00  0.0000E+00  0.0000E+00  0.0000E+00  0.0000E+00  0.0000E+00
          24  1.8032E-01  8.7342E-01  0.0000E+00  0.0000E+00  0.0000E+00  0.0000E+00  0.0000E+00  0.0000E+00  0.0000E+00  0.0000E+00
          24  4.9239E-02  1.0397E+00  0.0000E+00  0.0000E+00  0.0000E+00  0.0000E+00  0.0000E+00  0.0000E+00  0.0000E+00  0.0000E+00
          24  4.8317E-02  9.2382E-01  0.0000E+00  0.0000E+00  0.0000E+00  0.0000E+00  0.0000E+00  0.0000E+00  0.0000E+00  0.0000E+00
  Element nb      COORD1      COORD2         S11         S22         S33         S12         E11         E22         E33         E12
          25  6.4501E-01  5.5754E-01  0.0000E+00  0.0000E+00  0.0000E+00  0.0000E+00  0.0000E+00  0.0000E+00  0.0000E+00  0.0000E+00
          25  6.3543E-01  4.0167E-01  0.0000E+00  0.0000E+00  0.0000E+00  0.0000E+00  0.0000E+00  0.0000E+00  0.0000E+00  0.0000E+00
          25  5.0624E-01  6.3430E-01  0.0000E+00  0.0000E+00  0.0000E+00  0.0000E+00  0.0000E+00  0.0000E+00  0.0000E+00  0.0000E+00
          25  4.9545E-01  5.0489E-01  0.0000E+00  0.0000E+00  0.0000E+00  0.0000E+00  0.0000E+00  0.0000E+00  0.0000E+00  0.0000E+00
  Element nb      COORD1      COORD2         S11         S22         S33         S12         E11         E22         E33         E12
          26  4.0660E-01  6.8572E-01  0.0000E+00  0.0000E+00  0.0000E+00  0.0000E+00  0.0000E+00  0.0000E+00  0.0000E+00  0.0000E+00
          26  3.9615E-01  5.6866E-01  0.0000E+00  0.0000E+00  0.0000E+00  0.0000E+00  0.0000E+00  0.0000E+00  0.0000E+00  0.0000E+00
          26  2.7314E-01  7.4945E-01  0.0000E+00  0.0000E+00  0.0000E+00  0.0000E+00  0.0000E+00  0.0000E+00  0.0000E+00  0.0000E+00
          26  2.6484E-01  6.3965E-01  0.0000E+00  0.0000E+00  0.0000E+00  0.0000E+00  0.0000E+00  0.0000E+00  0.0000E+00  0.0000E+00
  Element nb      COORD1      COORD2         S11         S22         S33         S12         E11         E22         E33         E12
          27  1.7689E-01  7.9073E-01  0.0000E+00  0.0000E+00  0.0000E+00  0.0000E+00  0.0000E+00  0.0000E+00  0.0000E+00  0.0000E+00
          27  1.7096E-01  6.8183E-01  0.0000E+00  0.0000E+00  0.0000E+00  0.0000E+00  0.0000E+00  0.0000E+00  0.0000E+00  0.0000E+00
          27  4.7398E-02  8.3978E-01  0.0000E+00  0.0000E+00  0.0000E+00  0.0000E+00  0.0000E+00  0.0000E+00  0.0000E+00  0.0000E+00
          27  4.5809E-02  7.2607E-01  0.0000E+00  0.0000E+00  0.0000E+00  0.0000E+00  0.0000E+00  0.0000E+00  0.0000E+00  0.0000E+00
  Element nb      COORD1      COORD2         S11         S22         S33         S12         E11         E22         E33         E12
          28  4.4215E-02  6.4377E-01  0.0000E+00  0.0000E+00  0.0000E+00  0.0000E+00  0.0000E+00  0.0000E+00  0.0000E+00  0.0000E+00
          28  1.6501E-01  6.0563E-01  0.0000E+00  0.0000E+00  0.0000E+00  0.0000E+00  0.0000E+00  0.0000E+00  0.0000E+00  0.0000E+00
          28  4.1448E-02  5.3264E-01  0.0000E+00  0.0000E+00  0.0000E+00  0.0000E+00  0.0000E+00  0.0000E+00  0.0000E+00  0.0000E+00
          28  1.5469E-01  5.0633E-01  0.0000E+00  0.0000E+00  0.0000E+00  0.0000E+00  0.0000E+00  0.0000E+00  0.0000E+00  0.0000E+00
  Element nb      COORD1      COORD2         S11         S22         S33         S12         E11         E22         E33         E12
          29  2.5415E-01  5.6556E-01  0.0000E+00  0.0000E+00  0.0000E+00  0.0000E+00  0.0000E+00  0.0000E+00  0.0000E+00  0.0000E+00
          29  3.7689E-01  4.9425E-01  0.0000E+00  0.0000E+00  0.0000E+00  0.0000E+00  0.0000E+00  0.0000E+00  0.0000E+00  0.0000E+00
          29  2.3327E-01  4.7294E-01  0.0000E+00  0.0000E+00  0.0000E+00  0.0000E+00  0.0000E+00  0.0000E+00  0.0000E+00  0.0000E+00
          29  3.3471E-01  4.0802E-01  0.0000E+00  0.0000E+00  0.0000E+00  0.0000E+00  0.0000E+00  0.0000E+00  0.0000E+00  0.0000E+00
  Element nb      COORD1      COORD2         S11         S22         S33         S12         E11         E22         E33         E12
          30  4.6719E-01  4.2831E-01  0.0000E+00  0.0000E+00  0.0000E+00  0.0000E+00  0.0000E+00  0.0000E+00  0.0000E+00  0.0000E+00
          30  5.9117E-01  3.1947E-01  0.0000E+00  0.0000E+00  0.0000E+00  0.0000E+00  0.0000E+00  0.0000E+00  0.0000E+00  0.0000E+00
          30  4.0077E-01  3.4849E-01  0.0000E+00  0.0000E+00  0.0000E+00  0.0000E+00  0.0000E+00  0.0000E+00  0.0000E+00  0.0000E+00
          30  4.7980E-01  2.5077E-01  0.0000E+00  0.0000E+00  0.0000E+00  0.0000E+00  0.0000E+00  0.0000E+00  0.0000E+00  0.0000E+00
  Element nb      COORD1      COORD2         S11         S22         S33         S12         E11         E22         E33         E12
          31  5.1805E-01  1.6956E-01  0.0000E+00  0.0000E+00  0.0000E+00  0.0000E+00  0.0000E+00  0.0000E+00  0.0000E+00  0.0000E+00
          31  6.4936E-01  2.2054E-01  0.0000E+00  0.0000E+00  0.0000E+00  0.0000E+00  0.0000E+00  0.0000E+00  0.0000E+00  0.0000E+00
          31  5.4351E-01  4.5435E-02  0.0000E+00  0.0000E+00  0.0000E+00  0.0000E+00  0.0000E+00  0.0000E+00  0.0000E+00  0.0000E+00
          31  6.8436E-01  5.9093E-02  0.0000E+00  0.0000E+00  0.0000E+00  0.0000E+00  0.0000E+00  0.0000E+00  0.0000E+00  0.0000E+00
  Element nb      COORD1      COORD2         S11         S22         S33         S12         E11         E22         E33         E12
          32  7.9005E-01  6.2701E-02  0.0000E+00  0.0000E+00  0.0000E+00  0.0000E+00  0.0000E+00  0.0000E+00  0.0000E+00  0.0000E+00
          32  7.5513E-01  2.3400E-01  0.0000E+00  0.0000E+00  0.0000E+00  0.0000E+00  0.0000E+00  0.0000E+00  0.0000E+00  0.0000E+00
          32  9.3796E-01  5.8900E-02  0.0000E+00  0.0000E+00  0.0000E+00  0.0000E+00  0.0000E+00  0.0000E+00  0.0000E+00  0.0000E+00
          32  9.1279E-01  2.1982E-01  0.0000E+00  0.0000E+00  0.0000E+00  0.0000E+00  0.0000E+00  0.0000E+00  0.0000E+00  0.0000E+00
  Element nb      COORD1      COORD2         S11         S22         S33         S12         E11         E22         E33         E12
          33  1.0452E+00  5.6779E-02  0.0000E+00  0.0000E+00  0.0000E+00  0.0000E+00  0.0000E+00  0.0000E+00  0.0000E+00  0.0000E+00
          33  1.0244E+00  2.1190E-01  0.0000E+00  0.0000E+00  0.0000E+00  0.0000E+00  0.0000E+00  0.0000E+00  0.0000E+00  0.0000E+00
          33  1.1903E+00  5.4785E-02  0.0000E+00  0.0000E+00  0.0000E+00  0.0000E+00  0.0000E+00  0.0000E+00  0.0000E+00  0.0000E+00
          33  1.1717E+00  2.0446E-01  0.0000E+00  0.0000E+00  0.0000E+00  0.0000E+00  0.0000E+00  0.0000E+00  0.0000E+00  0.0000E+00
  Element nb      COORD1      COORD2         S11         S22         S33         S12         E11         E22         E33         E12
          34  1.2964E+00  5.3859E-02  0.0000E+00  0.0000E+00  0.0000E+00  0.0000E+00  0.0000E+00  0.0000E+00  0.0000E+00  0.0000E+00
          34  1.2787E+00  2.0101E-01  0.0000E+00  0.0000E+00  0.0000E+00  0.0000E+00  0.0000E+00  0.0000E+00  0.0000E+00  0.0000E+00
          34  1.4409E+00  5.3324E-02  0.0000E+00  0.0000E+00  0.0000E+00  0.0000E+00  0.0000E+00  0.0000E+00  0.0000E+00  0.0000E+00
          34  1.4240E+00  1.9901E-01  0.0000E+00  0.0000E+00  0.0000E+00  0.0000E+00  0.0000E+00  0.0000E+00  0.0000E+00  0.0000E+00
  Element nb      COORD1      COORD2         S11         S22         S33         S12         E11         E22         E33         E12
          35  1.5468E+00  5.3112E-02  0.0000E+00  0.0000E+00  0.0000E+00  0.0000E+00  0.0000E+00  0.0000E+00  0.0000E+00  0.0000E+00
          35  1.5302E+00  1.9822E-01  0.0000E+00  0.0000E+00  0.0000E+00  0.0000E+00  0.0000E+00  0.0000E+00  0.0000E+00  0.0000E+00
          35  1.6913E+00  5.3068E-02  0.0000E+00  0.0000E+00  0.0000E+00  0.0000E+00  0.0000E+00  0.0000E+00  0.0000E+00  0.0000E+00
          35  1.6754E+00  1.9805E-01  0.0000E+00  0.0000E+00  0.0000E+00  0.0000E+00  0.0000E+00  0.0000E+00  0.0000E+00  0.0000E+00
  Element nb      COORD1      COORD2         S11         S22         S33         S12         E11         E22         E33         E12
          36  1.7972E+00  5.3048E-02  0.0000E+00  0.0000E+00  0.0000E+00  0.0000E+00  0.0000E+00  0.0000E+00  0.0000E+00  0.0000E+00
          36  1.7817E+00  1.9798E-01  0.0000E+00  0.0000E+00  0.0000E+00  0.0000E+00  0.0000E+00  0.0000E+00  0.0000E+00  0.0000E+00
          36  1.9417E+00  5.3038E-02  0.0000E+00  0.0000E+00  0.0000E+00  0.0000E+00  0.0000E+00  0.0000E+00  0.0000E+00  0.0000E+00
          36  1.9269E+00  1.9794E-01  0.0000E+00  0.0000E+00  0.0000E+00  0.0000E+00  0.0000E+00  0.0000E+00  0.0000E+00  0.0000E+00
  Element nb      COORD1      COORD2         S11         S22         S33         S12         E11         E22         E33         E12
          37  2.0476E+00  5.3031E-02  0.0000E+00  0.0000E+00  0.0000E+00  0.0000E+00  0.0000E+00  0.0000E+00  0.0000E+00  0.0000E+00
          37  2.0333E+00  1.9792E-01  0.0000E+00  0.0000E+00  0.0000E+00  0.0000E+00  0.0000E+00  0.0000E+00  0.0000E+00  0.0000E+00
          37  2.1922E+00  5.3022E-02  0.0000E+00  0.0000E+00  0.0000E+00  0.0000E+00  0.0000E+00  0.0000E+00  0.0000E+00  0.0000E+00
          37  2.1785E+00  1.9788E-01  0.0000E+00  0.0000E+00  0.0000E+00  0.0000E+00  0.0000E+00  0.0000E+00  0.0000E+00  0.0000E+00
  Element nb      COORD1      COORD2         S11         S22         S33         S12         E11         E22         E33         E12
          38  2.2980E+00  5.3015E-02  0.0000E+00  0.0000E+00  0.0000E+00  0.0000E+00  0.0000E+00  0.0000E+00  0.0000E+00  0.0000E+00
          38  2.2849E+00  1.9785E-01  0.0000E+00  0.0000E+00  0.0000E+00  0.0000E+00  0.0000E+00  0.0000E+00  0.0000E+00  0.0000E+00
          38  2.4426E+00  5.3005E-02  0.0000E+00  0.0000E+00  0.0000E+00  0.0000E+00  0.0000E+00  0.0000E+00  0.0000E+00  0.0000E+00
          38  2.4302E+00  1.9782E-01  0.0000E+00  0.0000E+00  0.0000E+00  0.0000E+00  0.0000E+00  0.0000E+00  0.0000E+00  0.0000E+00
  Element nb      COORD1      COORD2         S11         S22         S33         S12         E11         E22         E33         E12
          39  2.5485E+00  5.2998E-02  0.0000E+00  0.0000E+00  0.0000E+00  0.0000E+00  0.0000E+00  0.0000E+00  0.0000E+00  0.0000E+00
          39  2.5365E+00  1.9779E-01  0.0000E+00  0.0000E+00  0.0000E+00  0.0000E+00  0.0000E+00  0.0000E+00  0.0000E+00  0.0000E+00
          39  2.6930E+00  5.2989E-02  0.0000E+00  0.0000E+00  0.0000E+00  0.0000E+00  0.0000E+00  0.0000E+00  0.0000E+00  0.0000E+00
          39  2.6818E+00  1.9776E-01  0.0000E+00  0.0000E+00  0.0000E+00  0.0000E+00  0.0000E+00  0.0000E+00  0.0000E+00  0.0000E+00
  Element nb      COORD1      COORD2         S11         S22         S33         S12         E11         E22         E33         E12
          40  2.7989E+00  5.2982E-02  0.0000E+00  0.0000E+00  0.0000E+00  0.0000E+00  0.0000E+00  0.0000E+00  0.0000E+00  0.0000E+00
          40  2.7881E+00  1.9773E-01  0.0000E+00  0.0000E+00  0.0000E+00  0.0000E+00  0.0000E+00  0.0000E+00  0.0000E+00  0.0000E+00
          40  2.9435E+00  5.2972E-02  0.0000E+00  0.0000E+00  0.0000E+00  0.0000E+00  0.0000E+00  0.0000E+00  0.0000E+00  0.0000E+00
          40  2.9334E+00  1.9769E-01  0.0000E+00  0.0000E+00  0.0000E+00  0.0000E+00  0.0000E+00  0.0000E+00  0.0000E+00  0.0000E+00
  Element nb      COORD1      COORD2         S11         S22         S33         S12         E11         E22         E33         E12
          41  3.0493E+00  5.2965E-02  0.0000E+00  0.0000E+00  0.0000E+00  0.0000E+00  0.0000E+00  0.0000E+00  0.0000E+00  0.0000E+00
          41  3.0397E+00  1.9767E-01  0.0000E+00  0.0000E+00  0.0000E+00  0.0000E+00  0.0000E+00  0.0000E+00  0.0000E+00  0.0000E+00
          41  3.1939E+00  5.2956E-02  0.0000E+00  0.0000E+00  0.0000E+00  0.0000E+00  0.0000E+00  0.0000E+00  0.0000E+00  0.0000E+00
          41  3.1850E+00  1.9763E-01  0.0000E+00  0.0000E+00  0.0000E+00  0.0000E+00  0.0000E+00  0.0000E+00  0.0000E+00  0.0000E+00
  Element nb      COORD1      COORD2         S11         S22         S33         S12         E11         E22         E33         E12
          42  3.2998E+00  5.2949E-02  0.0000E+00  0.0000E+00  0.0000E+00  0.0000E+00  0.0000E+00  0.0000E+00  0.0000E+00  0.0000E+00
          42  3.2914E+00  1.9761E-01  0.0000E+00  0.0000E+00  0.0000E+00  0.0000E+00  0.0000E+00  0.0000E+00  0.0000E+00  0.0000E+00
          42  3.4443E+00  5.2939E-02  0.0000E+00  0.0000E+00  0.0000E+00  0.0000E+00  0.0000E+00  0.0000E+00  0.0000E+00  0.0000E+00
          42  3.4366E+00  1.9757E-01  0.0000E+00  0.0000E+00  0.0000E+00  0.0000E+00  0.0000E+00  0.0000E+00  0.0000E+00  0.0000E+00
  Element nb      COORD1      COORD2         S11         S22         S33         S12         E11         E22         E33         E12
          43  3.5502E+00  5.2932E-02  0.0000E+00  0.0000E+00  0.0000E+00  0.0000E+00  0.0000E+00  0.0000E+00  0.0000E+00  0.0000E+00
          43  3.5430E+00  1.9755E-01  0.0000E+00  0.0000E+00  0.0000E+00  0.0000E+00  0.0000E+00  0.0000E+00  0.0000E+00  0.0000E+00
          43  3.6948E+00  5.2922E-02  0.0000E+00  0.0000E+00  0.0000E+00  0.0000E+00  0.0000E+00  0.0000E+00  0.0000E+00  0.0000E+00
          43  3.6883E+00  1.9751E-01  0.0000E+00  0.0000E+00  0.0000E+00  0.0000E+00  0.0000E+00  0.0000E+00  0.0000E+00  0.0000E+00
  Element nb      COORD1      COORD2         S11         S22         S33         S12         E11         E22         E33         E12
          44  3.8006E+00  5.2915E-02  0.0000E+00  0.0000E+00  0.0000E+00  0.0000E+00  0.0000E+00  0.0000E+00  0.0000E+00  0.0000E+00
          44  3.7946E+00  1.9748E-01  0.0000E+00  0.0000E+00  0.0000E+00  0.0000E+00  0.0000E+00  0.0000E+00  0.0000E+00  0.0000E+00
          44  3.9452E+00  5.2906E-02  0.0000E+00  0.0000E+00  0.0000E+00  0.0000E+00  0.0000E+00  0.0000E+00  0.0000E+00  0.0000E+00
          44  3.9399E+00  1.9745E-01  0.0000E+00  0.0000E+00  0.0000E+00  0.0000E+00  0.0000E+00  0.0000E+00  0.0000E+00  0.0000E+00
  Element nb      COORD1      COORD2         S11         S22         S33         S12         E11         E22         E33         E12
          45  4.0511E+00  5.2899E-02  0.0000E+00  0.0000E+00  0.0000E+00  0.0000E+00  0.0000E+00  0.0000E+00  0.0000E+00  0.0000E+00
          45  4.0462E+00  1.9742E-01  0.0000E+00  0.0000E+00  0.0000E+00  0.0000E+00  0.0000E+00  0.0000E+00  0.0000E+00  0.0000E+00
          45  4.1957E+00  5.2889E-02  0.0000E+00  0.0000E+00  0.0000E+00  0.0000E+00  0.0000E+00  0.0000E+00  0.0000E+00  0.0000E+00
          45  4.1915E+00  1.9738E-01  0.0000E+00  0.0000E+00  0.0000E+00  0.0000E+00  0.0000E+00  0.0000E+00  0.0000E+00  0.0000E+00
  Element nb      COORD1      COORD2         S11         S22         S33         S12         E11         E22         E33         E12
          46  4.3015E+00  5.2882E-02  0.0000E+00  0.0000E+00  0.0000E+00  0.0000E+00  0.0000E+00  0.0000E+00  0.0000E+00  0.0000E+00
          46  4.2979E+00  1.9736E-01  0.0000E+00  0.0000E+00  0.0000E+00  0.0000E+00  0.0000E+00  0.0000E+00  0.0000E+00  0.0000E+00
          46  4.4461E+00  5.2872E-02  0.0000E+00  0.0000E+00  0.0000E+00  0.0000E+00  0.0000E+00  0.0000E+00  0.0000E+00  0.0000E+00
          46  4.4432E+00  1.9732E-01  0.0000E+00  0.0000E+00  0.0000E+00  0.0000E+00  0.0000E+00  0.0000E+00  0.0000E+00  0.0000E+00
  Element nb      COORD1      COORD2         S11         S22         S33         S12         E11         E22         E33         E12
          47  4.5520E+00  5.2865E-02  0.0000E+00  0.0000E+00  0.0000E+00  0.0000E+00  0.0000E+00  0.0000E+00  0.0000E+00  0.0000E+00
          47  4.5495E+00  1.9729E-01  0.0000E+00  0.0000E+00  0.0000E+00  0.0000E+00  0.0000E+00  0.0000E+00  0.0000E+00  0.0000E+00
          47  4.6966E+00  5.2855E-02  0.0000E+00  0.0000E+00  0.0000E+00  0.0000E+00  0.0000E+00  0.0000E+00  0.0000E+00  0.0000E+00
          47  4.6949E+00  1.9726E-01  0.0000E+00  0.0000E+00  0.0000E+00  0.0000E+00  0.0000E+00  0.0000E+00  0.0000E+00  0.0000E+00
  Element nb      COORD1      COORD2         S11         S22         S33         S12         E11         E22         E33         E12
          48  4.8024E+00  5.2847E-02  0.0000E+00  0.0000E+00  0.0000E+00  0.0000E+00  0.0000E+00  0.0000E+00  0.0000E+00  0.0000E+00
          48  4.8013E+00  1.9723E-01  0.0000E+00  0.0000E+00  0.0000E+00  0.0000E+00  0.0000E+00  0.0000E+00  0.0000E+00  0.0000E+00
          48  4.9471E+00  5.2835E-02  0.0000E+00  0.0000E+00  0.0000E+00  0.0000E+00  0.0000E+00  0.0000E+00  0.0000E+00  0.0000E+00
          48  4.9468E+00  1.9718E-01  0.0000E+00  0.0000E+00  0.0000E+00  0.0000E+00  0.0000E+00  0.0000E+00  0.0000E+00  0.0000E+00
  Element nb      COORD1      COORD2         S11         S22         S33         S12         E11         E22         E33         E12
          49  4.9466E+00  3.0285E-01  0.0000E+00  0.0000E+00  0.0000E+00  0.0000E+00  0.0000E+00  0.0000E+00  0.0000E+00  0.0000E+00
          49  4.8007E+00  3.0291E-01  0.0000E+00  0.0000E+00  0.0000E+00  0.0000E+00  0.0000E+00  0.0000E+00  0.0000E+00  0.0000E+00
          49  4.9465E+00  4.4720E-01  0.0000E+00  0.0000E+00  0.0000E+00  0.0000E+00  0.0000E+00  0.0000E+00  0.0000E+00  0.0000E+00
          49  4.8002E+00  4.4727E-01  0.0000E+00  0.0000E+00  0.0000E+00  0.0000E+00  0.0000E+00  0.0000E+00  0.0000E+00  0.0000E+00
  Element nb      COORD1      COORD2         S11         S22         S33         S12         E11         E22         E33         E12
          50  4.9464E+00  5.5286E-01  0.0000E+00  0.0000E+00  0.0000E+00  0.0000E+00  0.0000E+00  0.0000E+00  0.0000E+00  0.0000E+00
          50  4.8000E+00  5.5294E-01  0.0000E+00  0.0000E+00  0.0000E+00  0.0000E+00  0.0000E+00  0.0000E+00  0.0000E+00  0.0000E+00
          50  4.9464E+00  6.9720E-01  0.0000E+00  0.0000E+00  0.0000E+00  0.0000E+00  0.0000E+00  0.0000E+00  0.0000E+00  0.0000E+00
          50  4.7999E+00  6.9728E-01  0.0000E+00  0.0000E+00  0.0000E+00  0.0000E+00  0.0000E+00  0.0000E+00  0.0000E+00  0.0000E+00
  Element nb      COORD1      COORD2         S11         S22         S33         S12         E11         E22         E33         E12
          51  4.9464E+00  8.0286E-01  0.0000E+00  0.0000E+00  0.0000E+00  0.0000E+00  0.0000E+00  0.0000E+00  0.0000E+00  0.0000E+00
          51  4.7999E+00  8.0294E-01  0.0000E+00  0.0000E+00  0.0000E+00  0.0000E+00  0.0000E+00  0.0000E+00  0.0000E+00  0.0000E+00
          51  4.9464E+00  9.4720E-01  0.0000E+00  0.0000E+00  0.0000E+00  0.0000E+00  0.0000E+00  0.0000E+00  0.0000E+00  0.0000E+00
          51  4.8001E+00  9.4727E-01  0.0000E+00  0.0000E+00  0.0000E+00  0.0000E+00  0.0000E+00  0.0000E+00  0.0000E+00  0.0000E+00
  Element nb      COORD1      COORD2         S11         S22         S33         S12         E11         E22         E33         E12
          52  4.9465E+00  1.0529E+00  0.0000E+00  0.0000E+00  0.0000E+00  0.0000E+00  0.0000E+00  0.0000E+00  0.0000E+00  0.0000E+00
          52  4.8002E+00  1.0529E+00  0.0000E+00  0.0000E+00  0.0000E+00  0.0000E+00  0.0000E+00  0.0000E+00  0.0000E+00  0.0000E+00
          52  4.9465E+00  1.1972E+00  0.0000E+00  0.0000E+00  0.0000E+00  0.0000E+00  0.0000E+00  0.0000E+00  0.0000E+00  0.0000E+00
          52  4.8004E+00  1.1973E+00  0.0000E+00  0.0000E+00  0.0000E+00  0.0000E+00  0.0000E+00  0.0000E+00  0.0000E+00  0.0000E+00
  Element nb      COORD1      COORD2         S11         S22         S33         S12         E11         E22         E33         E12
          53  4.9466E+00  1.3029E+00  0.0000E+00  0.0000E+00  0.0000E+00  0.0000E+00  0.0000E+00  0.0000E+00  0.0000E+00  0.0000E+00
          53  4.8006E+00  1.3029E+00  0.0000E+00  0.0000E+00  0.0000E+00  0.0000E+00  0.0000E+00  0.0000E+00  0.0000E+00  0.0000E+00
          53  4.9466E+00  1.4472E+00  0.0000E+00  0.0000E+00  0.0000E+00  0.0000E+00  0.0000E+00  0.0000E+00  0.0000E+00  0.0000E+00
          53  4.8008E+00  1.4472E+00  0.0000E+00  0.0000E+00  0.0000E+00  0.0000E+00  0.0000E+00  0.0000E+00  0.0000E+00  0.0000E+00
  Element nb      COORD1      COORD2         S11         S22         S33         S12         E11         E22         E33         E12
          54  4.9467E+00  1.5528E+00  0.0000E+00  0.0000E+00  0.0000E+00  0.0000E+00  0.0000E+00  0.0000E+00  0.0000E+00  0.0000E+00
          54  4.8010E+00  1.5529E+00  0.0000E+00  0.0000E+00  0.0000E+00  0.0000E+00  0.0000E+00  0.0000E+00  0.0000E+00  0.0000E+00
          54  4.9468E+00  1.6972E+00  0.0000E+00  0.0000E+00  0.0000E+00  0.0000E+00  0.0000E+00  0.0000E+00  0.0000E+00  0.0000E+00
          54  4.8013E+00  1.6972E+00  0.0000E+00  0.0000E+00  0.0000E+00  0.0000E+00  0.0000E+00  0.0000E+00  0.0000E+00  0.0000E+00
  Element nb      COORD1      COORD2         S11         S22         S33         S12         E11         E22         E33         E12
          55  4.9468E+00  1.8028E+00  0.0000E+00  0.0000E+00  0.0000E+00  0.0000E+00  0.0000E+00  0.0000E+00  0.0000E+00  0.0000E+00
          55  4.8015E+00  1.8029E+00  0.0000E+00  0.0000E+00  0.0000E+00  0.0000E+00  0.0000E+00  0.0000E+00  0.0000E+00  0.0000E+00
          55  4.9469E+00  1.9472E+00  0.0000E+00  0.0000E+00  0.0000E+00  0.0000E+00  0.0000E+00  0.0000E+00  0.0000E+00  0.0000E+00
          55  4.8018E+00  1.9472E+00  0.0000E+00  0.0000E+00  0.0000E+00  0.0000E+00  0.0000E+00  0.0000E+00  0.0000E+00  0.0000E+00
  Element nb      COORD1      COORD2         S11         S22         S33         S12         E11         E22         E33         E12
          56  4.9469E+00  2.0528E+00  0.0000E+00  0.0000E+00  0.0000E+00  0.0000E+00  0.0000E+00  0.0000E+00  0.0000E+00  0.0000E+00
          56  4.8020E+00  2.0529E+00  0.0000E+00  0.0000E+00  0.0000E+00  0.0000E+00  0.0000E+00  0.0000E+00  0.0000E+00  0.0000E+00
          56  4.9470E+00  2.1972E+00  0.0000E+00  0.0000E+00  0.0000E+00  0.0000E+00  0.0000E+00  0.0000E+00  0.0000E+00  0.0000E+00
          56  4.8022E+00  2.1972E+00  0.0000E+00  0.0000E+00  0.0000E+00  0.0000E+00  0.0000E+00  0.0000E+00  0.0000E+00  0.0000E+00
  Element nb      COORD1      COORD2         S11         S22         S33         S12         E11         E22         E33         E12
          57  4.9471E+00  2.3028E+00  0.0000E+00  0.0000E+00  0.0000E+00  0.0000E+00  0.0000E+00  0.0000E+00  0.0000E+00  0.0000E+00
          57  4.8025E+00  2.3028E+00  0.0000E+00  0.0000E+00  0.0000E+00  0.0000E+00  0.0000E+00  0.0000E+00  0.0000E+00  0.0000E+00
          57  4.9471E+00  2.4472E+00  0.0000E+00  0.0000E+00  0.0000E+00  0.0000E+00  0.0000E+00  0.0000E+00  0.0000E+00  0.0000E+00
          57  4.8027E+00  2.4472E+00  0.0000E+00  0.0000E+00  0.0000E+00  0.0000E+00  0.0000E+00  0.0000E+00  0.0000E+00  0.0000E+00
  Element nb      COORD1      COORD2         S11         S22         S33         S12         E11         E22         E33         E12
          58  4.6940E+00  3.0295E-01  0.0000E+00  0.0000E+00  0.0000E+00  0.0000E+00  0.0000E+00  0.0000E+00  0.0000E+00  0.0000E+00
          58  4.5482E+00  3.0301E-01  0.0000E+00  0.0000E+00  0.0000E+00  0.0000E+00  0.0000E+00  0.0000E+00  0.0000E+00  0.0000E+00
          58  4.6932E+00  4.4732E-01  0.0000E+00  0.0000E+00  0.0000E+00  0.0000E+00  0.0000E+00  0.0000E+00  0.0000E+00  0.0000E+00
          58  4.5471E+00  4.4739E-01  0.0000E+00  0.0000E+00  0.0000E+00  0.0000E+00  0.0000E+00  0.0000E+00  0.0000E+00  0.0000E+00
  Element nb      COORD1      COORD2         S11         S22         S33         S12         E11         E22         E33         E12
          59  4.6929E+00  5.5300E-01  0.0000E+00  0.0000E+00  0.0000E+00  0.0000E+00  0.0000E+00  0.0000E+00  0.0000E+00  0.0000E+00
          59  4.5466E+00  5.5307E-01  0.0000E+00  0.0000E+00  0.0000E+00  0.0000E+00  0.0000E+00  0.0000E+00  0.0000E+00  0.0000E+00
          59  4.6927E+00  6.9734E-01  0.0000E+00  0.0000E+00  0.0000E+00  0.0000E+00  0.0000E+00  0.0000E+00  0.0000E+00  0.0000E+00
          59  4.5463E+00  6.9742E-01  0.0000E+00  0.0000E+00  0.0000E+00  0.0000E+00  0.0000E+00  0.0000E+00  0.0000E+00  0.0000E+00
  Element nb      COORD1      COORD2         S11         S22         S33         S12         E11         E22         E33         E12
          60  4.6927E+00  8.0300E-01  0.0000E+00  0.0000E+00  0.0000E+00  0.0000E+00  0.0000E+00  0.0000E+00  0.0000E+00  0.0000E+00
          60  4.5464E+00  8.0308E-01  0.0000E+00  0.0000E+00  0.0000E+00  0.0000E+00  0.0000E+00  0.0000E+00  0.0000E+00  0.0000E+00
          60  4.6929E+00  9.4733E-01  0.0000E+00  0.0000E+00  0.0000E+00  0.0000E+00  0.0000E+00  0.0000E+00  0.0000E+00  0.0000E+00
          60  4.5466E+00  9.4741E-01  0.0000E+00  0.0000E+00  0.0000E+00  0.0000E+00  0.0000E+00  0.0000E+00  0.0000E+00  0.0000E+00
  Element nb      COORD1      COORD2         S11         S22         S33         S12         E11         E22         E33         E12
          61  4.6931E+00  1.0530E+00  0.0000E+00  0.0000E+00  0.0000E+00  0.0000E+00  0.0000E+00  0.0000E+00  0.0000E+00  0.0000E+00
          61  4.5469E+00  1.0531E+00  0.0000E+00  0.0000E+00  0.0000E+00  0.0000E+00  0.0000E+00  0.0000E+00  0.0000E+00  0.0000E+00
          61  4.6934E+00  1.1973E+00  0.0000E+00  0.0000E+00  0.0000E+00  0.0000E+00  0.0000E+00  0.0000E+00  0.0000E+00  0.0000E+00
          61  4.5474E+00  1.1974E+00  0.0000E+00  0.0000E+00  0.0000E+00  0.0000E+00  0.0000E+00  0.0000E+00  0.0000E+00  0.0000E+00
  Element nb      COORD1      COORD2         S11         S22         S33         S12         E11         E22         E33         E12
          62  4.6937E+00  1.3030E+00  0.0000E+00  0.0000E+00  0.0000E+00  0.0000E+00  0.0000E+00  0.0000E+00  0.0000E+00  0.0000E+00
          62  4.5477E+00  1.3030E+00  0.0000E+00  0.0000E+00  0.0000E+00  0.0000E+00  0.0000E+00  0.0000E+00  0.0000E+00  0.0000E+00
          62  4.6941E+00  1.4473E+00  0.0000E+00  0.0000E+00  0.0000E+00  0.0000E+00  0.0000E+00  0.0000E+00  0.0000E+00  0.0000E+00
          62  4.5483E+00  1.4473E+00  0.0000E+00  0.0000E+00  0.0000E+00  0.0000E+00  0.0000E+00  0.0000E+00  0.0000E+00  0.0000E+00
  Element nb      COORD1      COORD2         S11         S22         S33         S12         E11         E22         E33         E12
          63  4.6944E+00  1.5529E+00  0.0000E+00  0.0000E+00  0.0000E+00  0.0000E+00  0.0000E+00  0.0000E+00  0.0000E+00  0.0000E+00
          63  4.5487E+00  1.5530E+00  0.0000E+00  0.0000E+00  0.0000E+00  0.0000E+00  0.0000E+00  0.0000E+00  0.0000E+00  0.0000E+00
          63  4.6948E+00  1.6973E+00  0.0000E+00  0.0000E+00  0.0000E+00  0.0000E+00  0.0000E+00  0.0000E+00  0.0000E+00  0.0000E+00
          63  4.5494E+00  1.6973E+00  0.0000E+00  0.0000E+00  0.0000E+00  0.0000E+00  0.0000E+00  0.0000E+00  0.0000E+00  0.0000E+00
  Element nb      COORD1      COORD2         S11         S22         S33         S12         E11         E22         E33         E12
          64  4.6951E+00  1.8029E+00  0.0000E+00  0.0000E+00  0.0000E+00  0.0000E+00  0.0000E+00  0.0000E+00  0.0000E+00  0.0000E+00
          64  4.5498E+00  1.8029E+00  0.0000E+00  0.0000E+00  0.0000E+00  0.0000E+00  0.0000E+00  0.0000E+00  0.0000E+00  0.0000E+00
          64  4.6955E+00  1.9472E+00  0.0000E+00  0.0000E+00  0.0000E+00  0.0000E+00  0.0000E+00  0.0000E+00  0.0000E+00  0.0000E+00
          64  4.5504E+00  1.9473E+00  0.0000E+00  0.0000E+00  0.0000E+00  0.0000E+00  0.0000E+00  0.0000E+00  0.0000E+00  0.0000E+00
  Element nb      COORD1      COORD2         S11         S22         S33         S12         E11         E22         E33         E12
          65  4.6958E+00  2.0529E+00  0.0000E+00  0.0000E+00  0.0000E+00  0.0000E+00  0.0000E+00  0.0000E+00  0.0000E+00  0.0000E+00
          65  4.5509E+00  2.0529E+00  0.0000E+00  0.0000E+00  0.0000E+00  0.0000E+00  0.0000E+00  0.0000E+00  0.0000E+00  0.0000E+00
          65  4.6963E+00  2.1972E+00  0.0000E+00  0.0000E+00  0.0000E+00  0.0000E+00  0.0000E+00  0.0000E+00  0.0000E+00  0.0000E+00
          65  4.5515E+00  2.1972E+00  0.0000E+00  0.0000E+00  0.0000E+00  0.0000E+00  0.0000E+00  0.0000E+00  0.0000E+00  0.0000E+00
  Element nb      COORD1      COORD2         S11         S22         S33         S12         E11         E22         E33         E12
          66  4.6966E+00  2.3029E+00  0.0000E+00  0.0000E+00  0.0000E+00  0.0000E+00  0.0000E+00  0.0000E+00  0.0000E+00  0.0000E+00
          66  4.5520E+00  2.3029E+00  0.0000E+00  0.0000E+00  0.0000E+00  0.0000E+00  0.0000E+00  0.0000E+00  0.0000E+00  0.0000E+00
          66  4.6970E+00  2.4472E+00  0.0000E+00  0.0000E+00  0.0000E+00  0.0000E+00  0.0000E+00  0.0000E+00  0.0000E+00  0.0000E+00
          66  4.5526E+00  2.4472E+00  0.0000E+00  0.0000E+00  0.0000E+00  0.0000E+00  0.0000E+00  0.0000E+00  0.0000E+00  0.0000E+00
  Element nb      COORD1      COORD2         S11         S22         S33         S12         E11         E22         E33         E12
          67  4.4416E+00  3.0304E-01  0.0000E+00  0.0000E+00  0.0000E+00  0.0000E+00  0.0000E+00  0.0000E+00  0.0000E+00  0.0000E+00
          67  4.2959E+00  3.0310E-01  0.0000E+00  0.0000E+00  0.0000E+00  0.0000E+00  0.0000E+00  0.0000E+00  0.0000E+00  0.0000E+00
          67  4.4402E+00  4.4744E-01  0.0000E+00  0.0000E+00  0.0000E+00  0.0000E+00  0.0000E+00  0.0000E+00  0.0000E+00  0.0000E+00
          67  4.2941E+00  4.4750E-01  0.0000E+00  0.0000E+00  0.0000E+00  0.0000E+00  0.0000E+00  0.0000E+00  0.0000E+00  0.0000E+00
  Element nb      COORD1      COORD2         S11         S22         S33         S12         E11         E22         E33         E12
          68  4.4395E+00  5.5312E-01  0.0000E+00  0.0000E+00  0.0000E+00  0.0000E+00  0.0000E+00  0.0000E+00  0.0000E+00  0.0000E+00
          68  4.2933E+00  5.5320E-01  0.0000E+00  0.0000E+00  0.0000E+00  0.0000E+00  0.0000E+00  0.0000E+00  0.0000E+00  0.0000E+00
          68  4.4392E+00  6.9747E-01  0.0000E+00  0.0000E+00  0.0000E+00  0.0000E+00  0.0000E+00  0.0000E+00  0.0000E+00  0.0000E+00
          68  4.2929E+00  6.9755E-01  0.0000E+00  0.0000E+00  0.0000E+00  0.0000E+00  0.0000E+00  0.0000E+00  0.0000E+00  0.0000E+00
  Element nb      COORD1      COORD2         S11         S22         S33         S12         E11         E22         E33         E12
          69  4.4392E+00  8.0314E-01  0.0000E+00  0.0000E+00  0.0000E+00  0.0000E+00  0.0000E+00  0.0000E+00  0.0000E+00  0.0000E+00
          69  4.2929E+00  8.0321E-01  0.0000E+00  0.0000E+00  0.0000E+00  0.0000E+00  0.0000E+00  0.0000E+00  0.0000E+00  0.0000E+00
          69  4.4395E+00  9.4746E-01  0.0000E+00  0.0000E+00  0.0000E+00  0.0000E+00  0.0000E+00  0.0000E+00  0.0000E+00  0.0000E+00
          69  4.2932E+00  9.4754E-01  0.0000E+00  0.0000E+00  0.0000E+00  0.0000E+00  0.0000E+00  0.0000E+00  0.0000E+00  0.0000E+00
  Element nb      COORD1      COORD2         S11         S22         S33         S12         E11         E22         E33         E12
          70  4.4398E+00  1.0531E+00  0.0000E+00  0.0000E+00  0.0000E+00  0.0000E+00  0.0000E+00  0.0000E+00  0.0000E+00  0.0000E+00
          70  4.2936E+00  1.0532E+00  0.0000E+00  0.0000E+00  0.0000E+00  0.0000E+00  0.0000E+00  0.0000E+00  0.0000E+00  0.0000E+00
          70  4.4404E+00  1.1974E+00  0.0000E+00  0.0000E+00  0.0000E+00  0.0000E+00  0.0000E+00  0.0000E+00  0.0000E+00  0.0000E+00
          70  4.2943E+00  1.1975E+00  0.0000E+00  0.0000E+00  0.0000E+00  0.0000E+00  0.0000E+00  0.0000E+00  0.0000E+00  0.0000E+00
  Element nb      COORD1      COORD2         S11         S22         S33         S12         E11         E22         E33         E12
          71  4.4409E+00  1.3031E+00  0.0000E+00  0.0000E+00  0.0000E+00  0.0000E+00  0.0000E+00  0.0000E+00  0.0000E+00  0.0000E+00
          71  4.2949E+00  1.3031E+00  0.0000E+00  0.0000E+00  0.0000E+00  0.0000E+00  0.0000E+00  0.0000E+00  0.0000E+00  0.0000E+00
          71  4.4416E+00  1.4474E+00  0.0000E+00  0.0000E+00  0.0000E+00  0.0000E+00  0.0000E+00  0.0000E+00  0.0000E+00  0.0000E+00
          71  4.2958E+00  1.4474E+00  0.0000E+00  0.0000E+00  0.0000E+00  0.0000E+00  0.0000E+00  0.0000E+00  0.0000E+00  0.0000E+00
  Element nb      COORD1      COORD2         S11         S22         S33         S12         E11         E22         E33         E12
          72  4.4421E+00  1.5530E+00  0.0000E+00  0.0000E+00  0.0000E+00  0.0000E+00  0.0000E+00  0.0000E+00  0.0000E+00  0.0000E+00
          72  4.2965E+00  1.5531E+00  0.0000E+00  0.0000E+00  0.0000E+00  0.0000E+00  0.0000E+00  0.0000E+00  0.0000E+00  0.0000E+00
          72  4.4429E+00  1.6973E+00  0.0000E+00  0.0000E+00  0.0000E+00  0.0000E+00  0.0000E+00  0.0000E+00  0.0000E+00  0.0000E+00
          72  4.2974E+00  1.6974E+00  0.0000E+00  0.0000E+00  0.0000E+00  0.0000E+00  0.0000E+00  0.0000E+00  0.0000E+00  0.0000E+00
  Element nb      COORD1      COORD2         S11         S22         S33         S12         E11         E22         E33         E12
          73  4.4434E+00  1.8030E+00  0.0000E+00  0.0000E+00  0.0000E+00  0.0000E+00  0.0000E+00  0.0000E+00  0.0000E+00  0.0000E+00
          73  4.2981E+00  1.8030E+00  0.0000E+00  0.0000E+00  0.0000E+00  0.0000E+00  0.0000E+00  0.0000E+00  0.0000E+00  0.0000E+00
          73  4.4442E+00  1.9473E+00  0.0000E+00  0.0000E+00  0.0000E+00  0.0000E+00  0.0000E+00  0.0000E+00  0.0000E+00  0.0000E+00
          73  4.2991E+00  1.9473E+00  0.0000E+00  0.0000E+00  0.0000E+00  0.0000E+00  0.0000E+00  0.0000E+00  0.0000E+00  0.0000E+00
  Element nb      COORD1      COORD2         S11         S22         S33         S12         E11         E22         E33         E12
          74  4.4448E+00  2.0529E+00  0.0000E+00  0.0000E+00  0.0000E+00  0.0000E+00  0.0000E+00  0.0000E+00  0.0000E+00  0.0000E+00
          74  4.2998E+00  2.0529E+00  0.0000E+00  0.0000E+00  0.0000E+00  0.0000E+00  0.0000E+00  0.0000E+00  0.0000E+00  0.0000E+00
          74  4.4455E+00  2.1972E+00  0.0000E+00  0.0000E+00  0.0000E+00  0.0000E+00  0.0000E+00  0.0000E+00  0.0000E+00  0.0000E+00
          74  4.3008E+00  2.1972E+00  0.0000E+00  0.0000E+00  0.0000E+00  0.0000E+00  0.0000E+00  0.0000E+00  0.0000E+00  0.0000E+00
  Element nb      COORD1      COORD2         S11         S22         S33         S12         E11         E22         E33         E12
          75  4.4461E+00  2.3029E+00  0.0000E+00  0.0000E+00  0.0000E+00  0.0000E+00  0.0000E+00  0.0000E+00  0.0000E+00  0.0000E+00
          75  4.3015E+00  2.3029E+00  0.0000E+00  0.0000E+00  0.0000E+00  0.0000E+00  0.0000E+00  0.0000E+00  0.0000E+00  0.0000E+00
          75  4.4469E+00  2.4472E+00  0.0000E+00  0.0000E+00  0.0000E+00  0.0000E+00  0.0000E+00  0.0000E+00  0.0000E+00  0.0000E+00
          75  4.3025E+00  2.4472E+00  0.0000E+00  0.0000E+00  0.0000E+00  0.0000E+00  0.0000E+00  0.0000E+00  0.0000E+00  0.0000E+00
  Element nb      COORD1      COORD2         S11         S22         S33         S12         E11         E22         E33         E12
          76  4.1892E+00  3.0313E-01  0.0000E+00  0.0000E+00  0.0000E+00  0.0000E+00  0.0000E+00  0.0000E+00  0.0000E+00  0.0000E+00
          76  4.0436E+00  3.0318E-01  0.0000E+00  0.0000E+00  0.0000E+00  0.0000E+00  0.0000E+00  0.0000E+00  0.0000E+00  0.0000E+00
          76  4.1872E+00  4.4755E-01  0.0000E+00  0.0000E+00  0.0000E+00  0.0000E+00  0.0000E+00  0.0000E+00  0.0000E+00  0.0000E+00
          76  4.0412E+00  4.4761E-01  0.0000E+00  0.0000E+00  0.0000E+00  0.0000E+00  0.0000E+00  0.0000E+00  0.0000E+00  0.0000E+00
  Element nb      COORD1      COORD2         S11         S22         S33         S12         E11         E22         E33         E12
          77  4.1863E+00  5.5325E-01  0.0000E+00  0.0000E+00  0.0000E+00  0.0000E+00  0.0000E+00  0.0000E+00  0.0000E+00  0.0000E+00
          77  4.0401E+00  5.5332E-01  0.0000E+00  0.0000E+00  0.0000E+00  0.0000E+00  0.0000E+00  0.0000E+00  0.0000E+00  0.0000E+00
          77  4.1858E+00  6.9760E-01  0.0000E+00  0.0000E+00  0.0000E+00  0.0000E+00  0.0000E+00  0.0000E+00  0.0000E+00  0.0000E+00
          77  4.0395E+00  6.9768E-01  0.0000E+00  0.0000E+00  0.0000E+00  0.0000E+00  0.0000E+00  0.0000E+00  0.0000E+00  0.0000E+00
  Element nb      COORD1      COORD2         S11         S22         S33         S12         E11         E22         E33         E12
          78  4.1857E+00  8.0327E-01  0.0000E+00  0.0000E+00  0.0000E+00  0.0000E+00  0.0000E+00  0.0000E+00  0.0000E+00  0.0000E+00
          78  4.0394E+00  8.0334E-01  0.0000E+00  0.0000E+00  0.0000E+00  0.0000E+00  0.0000E+00  0.0000E+00  0.0000E+00  0.0000E+00
          78  4.1861E+00  9.4759E-01  0.0000E+00  0.0000E+00  0.0000E+00  0.0000E+00  0.0000E+00  0.0000E+00  0.0000E+00  0.0000E+00
          78  4.0399E+00  9.4766E-01  0.0000E+00  0.0000E+00  0.0000E+00  0.0000E+00  0.0000E+00  0.0000E+00  0.0000E+00  0.0000E+00
  Element nb      COORD1      COORD2         S11         S22         S33         S12         E11         E22         E33         E12
          79  4.1866E+00  1.0532E+00  0.0000E+00  0.0000E+00  0.0000E+00  0.0000E+00  0.0000E+00  0.0000E+00  0.0000E+00  0.0000E+00
          79  4.0404E+00  1.0533E+00  0.0000E+00  0.0000E+00  0.0000E+00  0.0000E+00  0.0000E+00  0.0000E+00  0.0000E+00  0.0000E+00
          79  4.1874E+00  1.1975E+00  0.0000E+00  0.0000E+00  0.0000E+00  0.0000E+00  0.0000E+00  0.0000E+00  0.0000E+00  0.0000E+00
          79  4.0413E+00  1.1976E+00  0.0000E+00  0.0000E+00  0.0000E+00  0.0000E+00  0.0000E+00  0.0000E+00  0.0000E+00  0.0000E+00
  Element nb      COORD1      COORD2         S11         S22         S33         S12         E11         E22         E33         E12
          80  4.1881E+00  1.3032E+00  0.0000E+00  0.0000E+00  0.0000E+00  0.0000E+00  0.0000E+00  0.0000E+00  0.0000E+00  0.0000E+00
          80  4.0421E+00  1.3032E+00  0.0000E+00  0.0000E+00  0.0000E+00  0.0000E+00  0.0000E+00  0.0000E+00  0.0000E+00  0.0000E+00
          80  4.1891E+00  1.4475E+00  0.0000E+00  0.0000E+00  0.0000E+00  0.0000E+00  0.0000E+00  0.0000E+00  0.0000E+00  0.0000E+00
          80  4.0433E+00  1.4475E+00  0.0000E+00  0.0000E+00  0.0000E+00  0.0000E+00  0.0000E+00  0.0000E+00  0.0000E+00  0.0000E+00
  Element nb      COORD1      COORD2         S11         S22         S33         S12         E11         E22         E33         E12
          81  4.1899E+00  1.5531E+00  0.0000E+00  0.0000E+00  0.0000E+00  0.0000E+00  0.0000E+00  0.0000E+00  0.0000E+00  0.0000E+00
          81  4.0442E+00  1.5532E+00  0.0000E+00  0.0000E+00  0.0000E+00  0.0000E+00  0.0000E+00  0.0000E+00  0.0000E+00  0.0000E+00
          81  4.1909E+00  1.6974E+00  0.0000E+00  0.0000E+00  0.0000E+00  0.0000E+00  0.0000E+00  0.0000E+00  0.0000E+00  0.0000E+00
          81  4.0455E+00  1.6974E+00  0.0000E+00  0.0000E+00  0.0000E+00  0.0000E+00  0.0000E+00  0.0000E+00  0.0000E+00  0.0000E+00
  Element nb      COORD1      COORD2         S11         S22         S33         S12         E11         E22         E33         E12
          82  4.1917E+00  1.8030E+00  0.0000E+00  0.0000E+00  0.0000E+00  0.0000E+00  0.0000E+00  0.0000E+00  0.0000E+00  0.0000E+00
          82  4.0464E+00  1.8031E+00  0.0000E+00  0.0000E+00  0.0000E+00  0.0000E+00  0.0000E+00  0.0000E+00  0.0000E+00  0.0000E+00
          82  4.1929E+00  1.9473E+00  0.0000E+00  0.0000E+00  0.0000E+00  0.0000E+00  0.0000E+00  0.0000E+00  0.0000E+00  0.0000E+00
          82  4.0477E+00  1.9474E+00  0.0000E+00  0.0000E+00  0.0000E+00  0.0000E+00  0.0000E+00  0.0000E+00  0.0000E+00  0.0000E+00
  Element nb      COORD1      COORD2         S11         S22         S33         S12         E11         E22         E33         E12
          83  4.1937E+00  2.0530E+00  0.0000E+00  0.0000E+00  0.0000E+00  0.0000E+00  0.0000E+00  0.0000E+00  0.0000E+00  0.0000E+00
          83  4.0487E+00  2.0530E+00  0.0000E+00  0.0000E+00  0.0000E+00  0.0000E+00  0.0000E+00  0.0000E+00  0.0000E+00  0.0000E+00
          83  4.1948E+00  2.1973E+00  0.0000E+00  0.0000E+00  0.0000E+00  0.0000E+00  0.0000E+00  0.0000E+00  0.0000E+00  0.0000E+00
          83  4.0500E+00  2.1973E+00  0.0000E+00  0.0000E+00  0.0000E+00  0.0000E+00  0.0000E+00  0.0000E+00  0.0000E+00  0.0000E+00
  Element nb      COORD1      COORD2         S11         S22         S33         S12         E11         E22         E33         E12
          84  4.1956E+00  2.3029E+00  0.0000E+00  0.0000E+00  0.0000E+00  0.0000E+00  0.0000E+00  0.0000E+00  0.0000E+00  0.0000E+00
          84  4.0510E+00  2.3029E+00  0.0000E+00  0.0000E+00  0.0000E+00  0.0000E+00  0.0000E+00  0.0000E+00  0.0000E+00  0.0000E+00
          84  4.1968E+00  2.4472E+00  0.0000E+00  0.0000E+00  0.0000E+00  0.0000E+00  0.0000E+00  0.0000E+00  0.0000E+00  0.0000E+00
          84  4.0523E+00  2.4472E+00  0.0000E+00  0.0000E+00  0.0000E+00  0.0000E+00  0.0000E+00  0.0000E+00  0.0000E+00  0.0000E+00
  Element nb      COORD1      COORD2         S11         S22         S33         S12         E11         E22         E33         E12
          85  3.9369E+00  3.0322E-01  0.0000E+00  0.0000E+00  0.0000E+00  0.0000E+00  0.0000E+00  0.0000E+00  0.0000E+00  0.0000E+00
          85  3.7913E+00  3.0327E-01  0.0000E+00  0.0000E+00  0.0000E+00  0.0000E+00  0.0000E+00  0.0000E+00  0.0000E+00  0.0000E+00
          85  3.9343E+00  4.4766E-01  0.0000E+00  0.0000E+00  0.0000E+00  0.0000E+00  0.0000E+00  0.0000E+00  0.0000E+00  0.0000E+00
          85  3.7882E+00  4.4773E-01  0.0000E+00  0.0000E+00  0.0000E+00  0.0000E+00  0.0000E+00  0.0000E+00  0.0000E+00  0.0000E+00
  Element nb      COORD1      COORD2         S11         S22         S33         S12         E11         E22         E33         E12
          86  3.9330E+00  5.5337E-01  0.0000E+00  0.0000E+00  0.0000E+00  0.0000E+00  0.0000E+00  0.0000E+00  0.0000E+00  0.0000E+00
          86  3.7868E+00  5.5344E-01  0.0000E+00  0.0000E+00  0.0000E+00  0.0000E+00  0.0000E+00  0.0000E+00  0.0000E+00  0.0000E+00
          86  3.9324E+00  6.9773E-01  0.0000E+00  0.0000E+00  0.0000E+00  0.0000E+00  0.0000E+00  0.0000E+00  0.0000E+00  0.0000E+00
          86  3.7861E+00  6.9781E-01  0.0000E+00  0.0000E+00  0.0000E+00  0.0000E+00  0.0000E+00  0.0000E+00  0.0000E+00  0.0000E+00
  Element nb      COORD1      COORD2         S11         S22         S33         S12         E11         E22         E33         E12
          87  3.9323E+00  8.0340E-01  0.0000E+00  0.0000E+00  0.0000E+00  0.0000E+00  0.0000E+00  0.0000E+00  0.0000E+00  0.0000E+00
          87  3.7860E+00  8.0347E-01  0.0000E+00  0.0000E+00  0.0000E+00  0.0000E+00  0.0000E+00  0.0000E+00  0.0000E+00  0.0000E+00
          87  3.9328E+00  9.4772E-01  0.0000E+00  0.0000E+00  0.0000E+00  0.0000E+00  0.0000E+00  0.0000E+00  0.0000E+00  0.0000E+00
          87  3.7865E+00  9.4779E-01  0.0000E+00  0.0000E+00  0.0000E+00  0.0000E+00  0.0000E+00  0.0000E+00  0.0000E+00  0.0000E+00
  Element nb      COORD1      COORD2         S11         S22         S33         S12         E11         E22         E33         E12
          88  3.9334E+00  1.0534E+00  0.0000E+00  0.0000E+00  0.0000E+00  0.0000E+00  0.0000E+00  0.0000E+00  0.0000E+00  0.0000E+00
          88  3.7872E+00  1.0534E+00  0.0000E+00  0.0000E+00  0.0000E+00  0.0000E+00  0.0000E+00  0.0000E+00  0.0000E+00  0.0000E+00
          88  3.9344E+00  1.1977E+00  0.0000E+00  0.0000E+00  0.0000E+00  0.0000E+00  0.0000E+00  0.0000E+00  0.0000E+00  0.0000E+00
          88  3.7884E+00  1.1977E+00  0.0000E+00  0.0000E+00  0.0000E+00  0.0000E+00  0.0000E+00  0.0000E+00  0.0000E+00  0.0000E+00
  Element nb      COORD1      COORD2         S11         S22         S33         S12         E11         E22         E33         E12
          89  3.9353E+00  1.3033E+00  0.0000E+00  0.0000E+00  0.0000E+00  0.0000E+00  0.0000E+00  0.0000E+00  0.0000E+00  0.0000E+00
          89  3.7893E+00  1.3033E+00  0.0000E+00  0.0000E+00  0.0000E+00  0.0000E+00  0.0000E+00  0.0000E+00  0.0000E+00  0.0000E+00
          89  3.9366E+00  1.4476E+00  0.0000E+00  0.0000E+00  0.0000E+00  0.0000E+00  0.0000E+00  0.0000E+00  0.0000E+00  0.0000E+00
          89  3.7908E+00  1.4476E+00  0.0000E+00  0.0000E+00  0.0000E+00  0.0000E+00  0.0000E+00  0.0000E+00  0.0000E+00  0.0000E+00
  Element nb      COORD1      COORD2         S11         S22         S33         S12         E11         E22         E33         E12
          90  3.9376E+00  1.5532E+00  0.0000E+00  0.0000E+00  0.0000E+00  0.0000E+00  0.0000E+00  0.0000E+00  0.0000E+00  0.0000E+00
          90  3.7920E+00  1.5532E+00  0.0000E+00  0.0000E+00  0.0000E+00  0.0000E+00  0.0000E+00  0.0000E+00  0.0000E+00  0.0000E+00
          90  3.9390E+00  1.6975E+00  0.0000E+00  0.0000E+00  0.0000E+00  0.0000E+00  0.0000E+00  0.0000E+00  0.0000E+00  0.0000E+00
          90  3.7936E+00  1.6975E+00  0.0000E+00  0.0000E+00  0.0000E+00  0.0000E+00  0.0000E+00  0.0000E+00  0.0000E+00  0.0000E+00
  Element nb      COORD1      COORD2         S11         S22         S33         S12         E11         E22         E33         E12
          91  3.9401E+00  1.8031E+00  0.0000E+00  0.0000E+00  0.0000E+00  0.0000E+00  0.0000E+00  0.0000E+00  0.0000E+00  0.0000E+00
          91  3.7948E+00  1.8031E+00  0.0000E+00  0.0000E+00  0.0000E+00  0.0000E+00  0.0000E+00  0.0000E+00  0.0000E+00  0.0000E+00
          91  3.9415E+00  1.9474E+00  0.0000E+00  0.0000E+00  0.0000E+00  0.0000E+00  0.0000E+00  0.0000E+00  0.0000E+00  0.0000E+00
          91  3.7964E+00  1.9474E+00  0.0000E+00  0.0000E+00  0.0000E+00  0.0000E+00  0.0000E+00  0.0000E+00  0.0000E+00  0.0000E+00
  Element nb      COORD1      COORD2         S11         S22         S33         S12         E11         E22         E33         E12
          92  3.9426E+00  2.0530E+00  0.0000E+00  0.0000E+00  0.0000E+00  0.0000E+00  0.0000E+00  0.0000E+00  0.0000E+00  0.0000E+00
          92  3.7976E+00  2.0530E+00  0.0000E+00  0.0000E+00  0.0000E+00  0.0000E+00  0.0000E+00  0.0000E+00  0.0000E+00  0.0000E+00
          92  3.9441E+00  2.1973E+00  0.0000E+00  0.0000E+00  0.0000E+00  0.0000E+00  0.0000E+00  0.0000E+00  0.0000E+00  0.0000E+00
          92  3.7993E+00  2.1973E+00  0.0000E+00  0.0000E+00  0.0000E+00  0.0000E+00  0.0000E+00  0.0000E+00  0.0000E+00  0.0000E+00
  Element nb      COORD1      COORD2         S11         S22         S33         S12         E11         E22         E33         E12
          93  3.9451E+00  2.3029E+00  0.0000E+00  0.0000E+00  0.0000E+00  0.0000E+00  0.0000E+00  0.0000E+00  0.0000E+00  0.0000E+00
          93  3.8005E+00  2.3029E+00  0.0000E+00  0.0000E+00  0.0000E+00  0.0000E+00  0.0000E+00  0.0000E+00  0.0000E+00  0.0000E+00
          93  3.9466E+00  2.4472E+00  0.0000E+00  0.0000E+00  0.0000E+00  0.0000E+00  0.0000E+00  0.0000E+00  0.0000E+00  0.0000E+00
          93  3.8022E+00  2.4472E+00  0.0000E+00  0.0000E+00  0.0000E+00  0.0000E+00  0.0000E+00  0.0000E+00  0.0000E+00  0.0000E+00
  Element nb      COORD1      COORD2         S11         S22         S33         S12         E11         E22         E33         E12
          94  3.6847E+00  3.0331E-01  0.0000E+00  0.0000E+00  0.0000E+00  0.0000E+00  0.0000E+00  0.0000E+00  0.0000E+00  0.0000E+00
          94  3.5390E+00  3.0336E-01  0.0000E+00  0.0000E+00  0.0000E+00  0.0000E+00  0.0000E+00  0.0000E+00  0.0000E+00  0.0000E+00
          94  3.6813E+00  4.4777E-01  0.0000E+00  0.0000E+00  0.0000E+00  0.0000E+00  0.0000E+00  0.0000E+00  0.0000E+00  0.0000E+00
          94  3.5353E+00  4.4784E-01  0.0000E+00  0.0000E+00  0.0000E+00  0.0000E+00  0.0000E+00  0.0000E+00  0.0000E+00  0.0000E+00
  Element nb      COORD1      COORD2         S11         S22         S33         S12         E11         E22         E33         E12
          95  3.6798E+00  5.5349E-01  0.0000E+00  0.0000E+00  0.0000E+00  0.0000E+00  0.0000E+00  0.0000E+00  0.0000E+00  0.0000E+00
          95  3.5336E+00  5.5356E-01  0.0000E+00  0.0000E+00  0.0000E+00  0.0000E+00  0.0000E+00  0.0000E+00  0.0000E+00  0.0000E+00
          95  3.6790E+00  6.9786E-01  0.0000E+00  0.0000E+00  0.0000E+00  0.0000E+00  0.0000E+00  0.0000E+00  0.0000E+00  0.0000E+00
          95  3.5327E+00  6.9794E-01  0.0000E+00  0.0000E+00  0.0000E+00  0.0000E+00  0.0000E+00  0.0000E+00  0.0000E+00  0.0000E+00
  Element nb      COORD1      COORD2         S11         S22         S33         S12         E11         E22         E33         E12
          96  3.6789E+00  8.0353E-01  0.0000E+00  0.0000E+00  0.0000E+00  0.0000E+00  0.0000E+00  0.0000E+00  0.0000E+00  0.0000E+00
          96  3.5326E+00  8.0361E-01  0.0000E+00  0.0000E+00  0.0000E+00  0.0000E+00  0.0000E+00  0.0000E+00  0.0000E+00  0.0000E+00
          96  3.6795E+00  9.4785E-01  0.0000E+00  0.0000E+00  0.0000E+00  0.0000E+00  0.0000E+00  0.0000E+00  0.0000E+00  0.0000E+00
          96  3.5332E+00  9.4792E-01  0.0000E+00  0.0000E+00  0.0000E+00  0.0000E+00  0.0000E+00  0.0000E+00  0.0000E+00  0.0000E+00
  Element nb      COORD1      COORD2         S11         S22         S33         S12         E11         E22         E33         E12
          97  3.6801E+00  1.0535E+00  0.0000E+00  0.0000E+00  0.0000E+00  0.0000E+00  0.0000E+00  0.0000E+00  0.0000E+00  0.0000E+00
          97  3.5340E+00  1.0536E+00  0.0000E+00  0.0000E+00  0.0000E+00  0.0000E+00  0.0000E+00  0.0000E+00  0.0000E+00  0.0000E+00
          97  3.6814E+00  1.1978E+00  0.0000E+00  0.0000E+00  0.0000E+00  0.0000E+00  0.0000E+00  0.0000E+00  0.0000E+00  0.0000E+00
          97  3.5354E+00  1.1978E+00  0.0000E+00  0.0000E+00  0.0000E+00  0.0000E+00  0.0000E+00  0.0000E+00  0.0000E+00  0.0000E+00
  Element nb      COORD1      COORD2         S11         S22         S33         S12         E11         E22         E33         E12
          98  3.6825E+00  1.3034E+00  0.0000E+00  0.0000E+00  0.0000E+00  0.0000E+00  0.0000E+00  0.0000E+00  0.0000E+00  0.0000E+00
          98  3.5366E+00  1.3035E+00  0.0000E+00  0.0000E+00  0.0000E+00  0.0000E+00  0.0000E+00  0.0000E+00  0.0000E+00  0.0000E+00
          98  3.6841E+00  1.4477E+00  0.0000E+00  0.0000E+00  0.0000E+00  0.0000E+00  0.0000E+00  0.0000E+00  0.0000E+00  0.0000E+00
          98  3.5383E+00  1.4477E+00  0.0000E+00  0.0000E+00  0.0000E+00  0.0000E+00  0.0000E+00  0.0000E+00  0.0000E+00  0.0000E+00
  Element nb      COORD1      COORD2         S11         S22         S33         S12         E11         E22         E33         E12
          99  3.6853E+00  1.5533E+00  0.0000E+00  0.0000E+00  0.0000E+00  0.0000E+00  0.0000E+00  0.0000E+00  0.0000E+00  0.0000E+00
          99  3.5397E+00  1.5533E+00  0.0000E+00  0.0000E+00  0.0000E+00  0.0000E+00  0.0000E+00  0.0000E+00  0.0000E+00  0.0000E+00
          99  3.6871E+00  1.6976E+00  0.0000E+00  0.0000E+00  0.0000E+00  0.0000E+00  0.0000E+00  0.0000E+00  0.0000E+00  0.0000E+00
          99  3.5416E+00  1.6976E+00  0.0000E+00  0.0000E+00  0.0000E+00  0.0000E+00  0.0000E+00  0.0000E+00  0.0000E+00  0.0000E+00
  Element nb      COORD1      COORD2         S11         S22         S33         S12         E11         E22         E33         E12
         100  3.6884E+00  1.8032E+00  0.0000E+00  0.0000E+00  0.0000E+00  0.0000E+00  0.0000E+00  0.0000E+00  0.0000E+00  0.0000E+00
         100  3.5431E+00  1.8032E+00  0.0000E+00  0.0000E+00  0.0000E+00  0.0000E+00  0.0000E+00  0.0000E+00  0.0000E+00  0.0000E+00
         100  3.6902E+00  1.9474E+00  0.0000E+00  0.0000E+00  0.0000E+00  0.0000E+00  0.0000E+00  0.0000E+00  0.0000E+00  0.0000E+00
         100  3.5451E+00  1.9475E+00  0.0000E+00  0.0000E+00  0.0000E+00  0.0000E+00  0.0000E+00  0.0000E+00  0.0000E+00  0.0000E+00
  Element nb      COORD1      COORD2         S11         S22         S33         S12         E11         E22         E33         E12
         101  3.6915E+00  2.0530E+00  0.0000E+00  0.0000E+00  0.0000E+00  0.0000E+00  0.0000E+00  0.0000E+00  0.0000E+00  0.0000E+00
         101  3.5465E+00  2.0531E+00  0.0000E+00  0.0000E+00  0.0000E+00  0.0000E+00  0.0000E+00  0.0000E+00  0.0000E+00  0.0000E+00
         101  3.6933E+00  2.1973E+00  0.0000E+00  0.0000E+00  0.0000E+00  0.0000E+00  0.0000E+00  0.0000E+00  0.0000E+00  0.0000E+00
         101  3.5486E+00  2.1973E+00  0.0000E+00  0.0000E+00  0.0000E+00  0.0000E+00  0.0000E+00  0.0000E+00  0.0000E+00  0.0000E+00
  Element nb      COORD1      COORD2         S11         S22         S33         S12         E11         E22         E33         E12
         102  3.6947E+00  2.3029E+00  0.0000E+00  0.0000E+00  0.0000E+00  0.0000E+00  0.0000E+00  0.0000E+00  0.0000E+00  0.0000E+00
         102  3.5501E+00  2.3029E+00  0.0000E+00  0.0000E+00  0.0000E+00  0.0000E+00  0.0000E+00  0.0000E+00  0.0000E+00  0.0000E+00
         102  3.6965E+00  2.4472E+00  0.0000E+00  0.0000E+00  0.0000E+00  0.0000E+00  0.0000E+00  0.0000E+00  0.0000E+00  0.0000E+00
         102  3.5521E+00  2.4472E+00  0.0000E+00  0.0000E+00  0.0000E+00  0.0000E+00  0.0000E+00  0.0000E+00  0.0000E+00  0.0000E+00
  Element nb      COORD1      COORD2         S11         S22         S33         S12         E11         E22         E33         E12
         103  3.4324E+00  3.0340E-01  0.0000E+00  0.0000E+00  0.0000E+00  0.0000E+00  0.0000E+00  0.0000E+00  0.0000E+00  0.0000E+00
         103  3.2867E+00  3.0345E-01  0.0000E+00  0.0000E+00  0.0000E+00  0.0000E+00  0.0000E+00  0.0000E+00  0.0000E+00  0.0000E+00
         103  3.4284E+00  4.4788E-01  0.0000E+00  0.0000E+00  0.0000E+00  0.0000E+00  0.0000E+00  0.0000E+00  0.0000E+00  0.0000E+00
         103  3.2824E+00  4.4795E-01  0.0000E+00  0.0000E+00  0.0000E+00  0.0000E+00  0.0000E+00  0.0000E+00  0.0000E+00  0.0000E+00
  Element nb      COORD1      COORD2         S11         S22         S33         S12         E11         E22         E33         E12
         104  3.4266E+00  5.5362E-01  0.0000E+00  0.0000E+00  0.0000E+00  0.0000E+00  0.0000E+00  0.0000E+00  0.0000E+00  0.0000E+00
         104  3.2804E+00  5.5369E-01  0.0000E+00  0.0000E+00  0.0000E+00  0.0000E+00  0.0000E+00  0.0000E+00  0.0000E+00  0.0000E+00
         104  3.4256E+00  6.9799E-01  0.0000E+00  0.0000E+00  0.0000E+00  0.0000E+00  0.0000E+00  0.0000E+00  0.0000E+00  0.0000E+00
         104  3.2793E+00  6.9807E-01  0.0000E+00  0.0000E+00  0.0000E+00  0.0000E+00  0.0000E+00  0.0000E+00  0.0000E+00  0.0000E+00
  Element nb      COORD1      COORD2         S11         S22         S33         S12         E11         E22         E33         E12
         105  3.4255E+00  8.0366E-01  0.0000E+00  0.0000E+00  0.0000E+00  0.0000E+00  0.0000E+00  0.0000E+00  0.0000E+00  0.0000E+00
         105  3.2792E+00  8.0374E-01  0.0000E+00  0.0000E+00  0.0000E+00  0.0000E+00  0.0000E+00  0.0000E+00  0.0000E+00  0.0000E+00
         105  3.4261E+00  9.4797E-01  0.0000E+00  0.0000E+00  0.0000E+00  0.0000E+00  0.0000E+00  0.0000E+00  0.0000E+00  0.0000E+00
         105  3.2799E+00  9.4805E-01  0.0000E+00  0.0000E+00  0.0000E+00  0.0000E+00  0.0000E+00  0.0000E+00  0.0000E+00  0.0000E+00
  Element nb      COORD1      COORD2         S11         S22         S33         S12         E11         E22         E33         E12
         106  3.4269E+00  1.0536E+00  0.0000E+00  0.0000E+00  0.0000E+00  0.0000E+00  0.0000E+00  0.0000E+00  0.0000E+00  0.0000E+00
         106  3.2807E+00  1.0537E+00  0.0000E+00  0.0000E+00  0.0000E+00  0.0000E+00  0.0000E+00  0.0000E+00  0.0000E+00  0.0000E+00
         106  3.4285E+00  1.1979E+00  0.0000E+00  0.0000E+00  0.0000E+00  0.0000E+00  0.0000E+00  0.0000E+00  0.0000E+00  0.0000E+00
         106  3.2824E+00  1.1979E+00  0.0000E+00  0.0000E+00  0.0000E+00  0.0000E+00  0.0000E+00  0.0000E+00  0.0000E+00  0.0000E+00
  Element nb      COORD1      COORD2         S11         S22         S33         S12         E11         E22         E33         E12
         107  3.4297E+00  1.3035E+00  0.0000E+00  0.0000E+00  0.0000E+00  0.0000E+00  0.0000E+00  0.0000E+00  0.0000E+00  0.0000E+00
         107  3.2838E+00  1.3036E+00  0.0000E+00  0.0000E+00  0.0000E+00  0.0000E+00  0.0000E+00  0.0000E+00  0.0000E+00  0.0000E+00
         107  3.4316E+00  1.4478E+00  0.0000E+00  0.0000E+00  0.0000E+00  0.0000E+00  0.0000E+00  0.0000E+00  0.0000E+00  0.0000E+00
         107  3.2859E+00  1.4478E+00  0.0000E+00  0.0000E+00  0.0000E+00  0.0000E+00  0.0000E+00  0.0000E+00  0.0000E+00  0.0000E+00
  Element nb      COORD1      COORD2         S11         S22         S33         S12         E11         E22         E33         E12
         108  3.4331E+00  1.5534E+00  0.0000E+00  0.0000E+00  0.0000E+00  0.0000E+00  0.0000E+00  0.0000E+00  0.0000E+00  0.0000E+00
         108  3.2874E+00  1.5534E+00  0.0000E+00  0.0000E+00  0.0000E+00  0.0000E+00  0.0000E+00  0.0000E+00  0.0000E+00  0.0000E+00
         108  3.4352E+00  1.6976E+00  0.0000E+00  0.0000E+00  0.0000E+00  0.0000E+00  0.0000E+00  0.0000E+00  0.0000E+00  0.0000E+00
         108  3.2897E+00  1.6977E+00  0.0000E+00  0.0000E+00  0.0000E+00  0.0000E+00  0.0000E+00  0.0000E+00  0.0000E+00  0.0000E+00
  Element nb      COORD1      COORD2         S11         S22         S33         S12         E11         E22         E33         E12
         109  3.4367E+00  1.8032E+00  0.0000E+00  0.0000E+00  0.0000E+00  0.0000E+00  0.0000E+00  0.0000E+00  0.0000E+00  0.0000E+00
         109  3.2914E+00  1.8033E+00  0.0000E+00  0.0000E+00  0.0000E+00  0.0000E+00  0.0000E+00  0.0000E+00  0.0000E+00  0.0000E+00
         109  3.4388E+00  1.9475E+00  0.0000E+00  0.0000E+00  0.0000E+00  0.0000E+00  0.0000E+00  0.0000E+00  0.0000E+00  0.0000E+00
         109  3.2937E+00  1.9475E+00  0.0000E+00  0.0000E+00  0.0000E+00  0.0000E+00  0.0000E+00  0.0000E+00  0.0000E+00  0.0000E+00
  Element nb      COORD1      COORD2         S11         S22         S33         S12         E11         E22         E33         E12
         110  3.4404E+00  2.0531E+00  0.0000E+00  0.0000E+00  0.0000E+00  0.0000E+00  0.0000E+00  0.0000E+00  0.0000E+00  0.0000E+00
         110  3.2955E+00  2.0531E+00  0.0000E+00  0.0000E+00  0.0000E+00  0.0000E+00  0.0000E+00  0.0000E+00  0.0000E+00  0.0000E+00
         110  3.4426E+00  2.1973E+00  0.0000E+00  0.0000E+00  0.0000E+00  0.0000E+00  0.0000E+00  0.0000E+00  0.0000E+00  0.0000E+00
         110  3.2978E+00  2.1974E+00  0.0000E+00  0.0000E+00  0.0000E+00  0.0000E+00  0.0000E+00  0.0000E+00  0.0000E+00  0.0000E+00
  Element nb      COORD1      COORD2         S11         S22         S33         S12         E11         E22         E33         E12
         111  3.4442E+00  2.3029E+00  0.0000E+00  0.0000E+00  0.0000E+00  0.0000E+00  0.0000E+00  0.0000E+00  0.0000E+00  0.0000E+00
         111  3.2996E+00  2.3030E+00  0.0000E+00  0.0000E+00  0.0000E+00  0.0000E+00  0.0000E+00  0.0000E+00  0.0000E+00  0.0000E+00
         111  3.4464E+00  2.4472E+00  0.0000E+00  0.0000E+00  0.0000E+00  0.0000E+00  0.0000E+00  0.0000E+00  0.0000E+00  0.0000E+00
         111  3.3020E+00  2.4472E+00  0.0000E+00  0.0000E+00  0.0000E+00  0.0000E+00  0.0000E+00  0.0000E+00  0.0000E+00  0.0000E+00
  Element nb      COORD1      COORD2         S11         S22         S33         S12         E11         E22         E33         E12
         112  3.1801E+00  3.0348E-01  0.0000E+00  0.0000E+00  0.0000E+00  0.0000E+00  0.0000E+00  0.0000E+00  0.0000E+00  0.0000E+00
         112  3.0344E+00  3.0353E-01  0.0000E+00  0.0000E+00  0.0000E+00  0.0000E+00  0.0000E+00  0.0000E+00  0.0000E+00  0.0000E+00
         112  3.1755E+00  4.4800E-01  0.0000E+00  0.0000E+00  0.0000E+00  0.0000E+00  0.0000E+00  0.0000E+00  0.0000E+00  0.0000E+00
         112  3.0295E+00  4.4806E-01  0.0000E+00  0.0000E+00  0.0000E+00  0.0000E+00  0.0000E+00  0.0000E+00  0.0000E+00  0.0000E+00
  Element nb      COORD1      COORD2         S11         S22         S33         S12         E11         E22         E33         E12
         113  3.1734E+00  5.5374E-01  0.0000E+00  0.0000E+00  0.0000E+00  0.0000E+00  0.0000E+00  0.0000E+00  0.0000E+00  0.0000E+00
         113  3.0272E+00  5.5381E-01  0.0000E+00  0.0000E+00  0.0000E+00  0.0000E+00  0.0000E+00  0.0000E+00  0.0000E+00  0.0000E+00
         113  3.1722E+00  6.9812E-01  0.0000E+00  0.0000E+00  0.0000E+00  0.0000E+00  0.0000E+00  0.0000E+00  0.0000E+00  0.0000E+00
         113  3.0259E+00  6.9820E-01  0.0000E+00  0.0000E+00  0.0000E+00  0.0000E+00  0.0000E+00  0.0000E+00  0.0000E+00  0.0000E+00
  Element nb      COORD1      COORD2         S11         S22         S33         S12         E11         E22         E33         E12
         114  3.1721E+00  8.0379E-01  0.0000E+00  0.0000E+00  0.0000E+00  0.0000E+00  0.0000E+00  0.0000E+00  0.0000E+00  0.0000E+00
         114  3.0257E+00  8.0387E-01  0.0000E+00  0.0000E+00  0.0000E+00  0.0000E+00  0.0000E+00  0.0000E+00  0.0000E+00  0.0000E+00
         114  3.1728E+00  9.4810E-01  0.0000E+00  0.0000E+00  0.0000E+00  0.0000E+00  0.0000E+00  0.0000E+00  0.0000E+00  0.0000E+00
         114  3.0266E+00  9.4817E-01  0.0000E+00  0.0000E+00  0.0000E+00  0.0000E+00  0.0000E+00  0.0000E+00  0.0000E+00  0.0000E+00
  Element nb      COORD1      COORD2         S11         S22         S33         S12         E11         E22         E33         E12
         115  3.1737E+00  1.0537E+00  0.0000E+00  0.0000E+00  0.0000E+00  0.0000E+00  0.0000E+00  0.0000E+00  0.0000E+00  0.0000E+00
         115  3.0275E+00  1.0538E+00  0.0000E+00  0.0000E+00  0.0000E+00  0.0000E+00  0.0000E+00  0.0000E+00  0.0000E+00  0.0000E+00
         115  3.1755E+00  1.1980E+00  0.0000E+00  0.0000E+00  0.0000E+00  0.0000E+00  0.0000E+00  0.0000E+00  0.0000E+00  0.0000E+00
         115  3.0294E+00  1.1981E+00  0.0000E+00  0.0000E+00  0.0000E+00  0.0000E+00  0.0000E+00  0.0000E+00  0.0000E+00  0.0000E+00
  Element nb      COORD1      COORD2         S11         S22         S33         S12         E11         E22         E33         E12
         116  3.1769E+00  1.3036E+00  0.0000E+00  0.0000E+00  0.0000E+00  0.0000E+00  0.0000E+00  0.0000E+00  0.0000E+00  0.0000E+00
         116  3.0310E+00  1.3037E+00  0.0000E+00  0.0000E+00  0.0000E+00  0.0000E+00  0.0000E+00  0.0000E+00  0.0000E+00  0.0000E+00
         116  3.1791E+00  1.4479E+00  0.0000E+00  0.0000E+00  0.0000E+00  0.0000E+00  0.0000E+00  0.0000E+00  0.0000E+00  0.0000E+00
         116  3.0334E+00  1.4479E+00  0.0000E+00  0.0000E+00  0.0000E+00  0.0000E+00  0.0000E+00  0.0000E+00  0.0000E+00  0.0000E+00
  Element nb      COORD1      COORD2         S11         S22         S33         S12         E11         E22         E33         E12
         117  3.1808E+00  1.5535E+00  0.0000E+00  0.0000E+00  0.0000E+00  0.0000E+00  0.0000E+00  0.0000E+00  0.0000E+00  0.0000E+00
         117  3.0352E+00  1.5535E+00  0.0000E+00  0.0000E+00  0.0000E+00  0.0000E+00  0.0000E+00  0.0000E+00  0.0000E+00  0.0000E+00
         117  3.1832E+00  1.6977E+00  0.0000E+00  0.0000E+00  0.0000E+00  0.0000E+00  0.0000E+00  0.0000E+00  0.0000E+00  0.0000E+00
         117  3.0378E+00  1.6977E+00  0.0000E+00  0.0000E+00  0.0000E+00  0.0000E+00  0.0000E+00  0.0000E+00  0.0000E+00  0.0000E+00
  Element nb      COORD1      COORD2         S11         S22         S33         S12         E11         E22         E33         E12
         118  3.1850E+00  1.8033E+00  0.0000E+00  0.0000E+00  0.0000E+00  0.0000E+00  0.0000E+00  0.0000E+00  0.0000E+00  0.0000E+00
         118  3.0397E+00  1.8033E+00  0.0000E+00  0.0000E+00  0.0000E+00  0.0000E+00  0.0000E+00  0.0000E+00  0.0000E+00  0.0000E+00
         118  3.1875E+00  1.9475E+00  0.0000E+00  0.0000E+00  0.0000E+00  0.0000E+00  0.0000E+00  0.0000E+00  0.0000E+00  0.0000E+00
         118  3.0424E+00  1.9476E+00  0.0000E+00  0.0000E+00  0.0000E+00  0.0000E+00  0.0000E+00  0.0000E+00  0.0000E+00  0.0000E+00
  Element nb      COORD1      COORD2         S11         S22         S33         S12         E11         E22         E33         E12
         119  3.1893E+00  2.0531E+00  0.0000E+00  0.0000E+00  0.0000E+00  0.0000E+00  0.0000E+00  0.0000E+00  0.0000E+00  0.0000E+00
         119  3.0444E+00  2.0532E+00  0.0000E+00  0.0000E+00  0.0000E+00  0.0000E+00  0.0000E+00  0.0000E+00  0.0000E+00  0.0000E+00
         119  3.1919E+00  2.1974E+00  0.0000E+00  0.0000E+00  0.0000E+00  0.0000E+00  0.0000E+00  0.0000E+00  0.0000E+00  0.0000E+00
         119  3.0471E+00  2.1974E+00  0.0000E+00  0.0000E+00  0.0000E+00  0.0000E+00  0.0000E+00  0.0000E+00  0.0000E+00  0.0000E+00
  Element nb      COORD1      COORD2         S11         S22         S33         S12         E11         E22         E33         E12
         120  3.1937E+00  2.3030E+00  0.0000E+00  0.0000E+00  0.0000E+00  0.0000E+00  0.0000E+00  0.0000E+00  0.0000E+00  0.0000E+00
         120  3.0491E+00  2.3030E+00  0.0000E+00  0.0000E+00  0.0000E+00  0.0000E+00  0.0000E+00  0.0000E+00  0.0000E+00  0.0000E+00
         120  3.1962E+00  2.4472E+00  0.0000E+00  0.0000E+00  0.0000E+00  0.0000E+00  0.0000E+00  0.0000E+00  0.0000E+00  0.0000E+00
         120  3.0518E+00  2.4472E+00  0.0000E+00  0.0000E+00  0.0000E+00  0.0000E+00  0.0000E+00  0.0000E+00  0.0000E+00  0.0000E+00
  Element nb      COORD1      COORD2         S11         S22         S33         S12         E11         E22         E33         E12
         121  2.9278E+00  3.0357E-01  0.0000E+00  0.0000E+00  0.0000E+00  0.0000E+00  0.0000E+00  0.0000E+00  0.0000E+00  0.0000E+00
         121  2.7822E+00  3.0362E-01  0.0000E+00  0.0000E+00  0.0000E+00  0.0000E+00  0.0000E+00  0.0000E+00  0.0000E+00  0.0000E+00
         121  2.9226E+00  4.4811E-01  0.0000E+00  0.0000E+00  0.0000E+00  0.0000E+00  0.0000E+00  0.0000E+00  0.0000E+00  0.0000E+00
         121  2.7766E+00  4.4817E-01  0.0000E+00  0.0000E+00  0.0000E+00  0.0000E+00  0.0000E+00  0.0000E+00  0.0000E+00  0.0000E+00
  Element nb      COORD1      COORD2         S11         S22         S33         S12         E11         E22         E33         E12
         122  2.9202E+00  5.5386E-01  0.0000E+00  0.0000E+00  0.0000E+00  0.0000E+00  0.0000E+00  0.0000E+00  0.0000E+00  0.0000E+00
         122  2.7740E+00  5.5393E-01  0.0000E+00  0.0000E+00  0.0000E+00  0.0000E+00  0.0000E+00  0.0000E+00  0.0000E+00  0.0000E+00
         122  2.9188E+00  6.9825E-01  0.0000E+00  0.0000E+00  0.0000E+00  0.0000E+00  0.0000E+00  0.0000E+00  0.0000E+00  0.0000E+00
         122  2.7725E+00  6.9833E-01  0.0000E+00  0.0000E+00  0.0000E+00  0.0000E+00  0.0000E+00  0.0000E+00  0.0000E+00  0.0000E+00
  Element nb      COORD1      COORD2         S11         S22         S33         S12         E11         E22         E33         E12
         123  2.9186E+00  8.0392E-01  0.0000E+00  0.0000E+00  0.0000E+00  0.0000E+00  0.0000E+00  0.0000E+00  0.0000E+00  0.0000E+00
         123  2.7723E+00  8.0400E-01  0.0000E+00  0.0000E+00  0.0000E+00  0.0000E+00  0.0000E+00  0.0000E+00  0.0000E+00  0.0000E+00
         123  2.9195E+00  9.4823E-01  0.0000E+00  0.0000E+00  0.0000E+00  0.0000E+00  0.0000E+00  0.0000E+00  0.0000E+00  0.0000E+00
         123  2.7732E+00  9.4830E-01  0.0000E+00  0.0000E+00  0.0000E+00  0.0000E+00  0.0000E+00  0.0000E+00  0.0000E+00  0.0000E+00
  Element nb      COORD1      COORD2         S11         S22         S33         S12         E11         E22         E33         E12
         124  2.9205E+00  1.0538E+00  0.0000E+00  0.0000E+00  0.0000E+00  0.0000E+00  0.0000E+00  0.0000E+00  0.0000E+00  0.0000E+00
         124  2.7743E+00  1.0539E+00  0.0000E+00  0.0000E+00  0.0000E+00  0.0000E+00  0.0000E+00  0.0000E+00  0.0000E+00  0.0000E+00
         124  2.9225E+00  1.1981E+00  0.0000E+00  0.0000E+00  0.0000E+00  0.0000E+00  0.0000E+00  0.0000E+00  0.0000E+00  0.0000E+00
         124  2.7765E+00  1.1982E+00  0.0000E+00  0.0000E+00  0.0000E+00  0.0000E+00  0.0000E+00  0.0000E+00  0.0000E+00  0.0000E+00
  Element nb      COORD1      COORD2         S11         S22         S33         S12         E11         E22         E33         E12
         125  2.9241E+00  1.3037E+00  0.0000E+00  0.0000E+00  0.0000E+00  0.0000E+00  0.0000E+00  0.0000E+00  0.0000E+00  0.0000E+00
         125  2.7782E+00  1.3038E+00  0.0000E+00  0.0000E+00  0.0000E+00  0.0000E+00  0.0000E+00  0.0000E+00  0.0000E+00  0.0000E+00
         125  2.9267E+00  1.4480E+00  0.0000E+00  0.0000E+00  0.0000E+00  0.0000E+00  0.0000E+00  0.0000E+00  0.0000E+00  0.0000E+00
         125  2.7809E+00  1.4480E+00  0.0000E+00  0.0000E+00  0.0000E+00  0.0000E+00  0.0000E+00  0.0000E+00  0.0000E+00  0.0000E+00
  Element nb      COORD1      COORD2         S11         S22         S33         S12         E11         E22         E33         E12
         126  2.9286E+00  1.5535E+00  0.0000E+00  0.0000E+00  0.0000E+00  0.0000E+00  0.0000E+00  0.0000E+00  0.0000E+00  0.0000E+00
         126  2.7829E+00  1.5536E+00  0.0000E+00  0.0000E+00  0.0000E+00  0.0000E+00  0.0000E+00  0.0000E+00  0.0000E+00  0.0000E+00
         126  2.9313E+00  1.6978E+00  0.0000E+00  0.0000E+00  0.0000E+00  0.0000E+00  0.0000E+00  0.0000E+00  0.0000E+00  0.0000E+00
         126  2.7859E+00  1.6978E+00  0.0000E+00  0.0000E+00  0.0000E+00  0.0000E+00  0.0000E+00  0.0000E+00  0.0000E+00  0.0000E+00
  Element nb      COORD1      COORD2         S11         S22         S33         S12         E11         E22         E33         E12
         127  2.9333E+00  1.8034E+00  0.0000E+00  0.0000E+00  0.0000E+00  0.0000E+00  0.0000E+00  0.0000E+00  0.0000E+00  0.0000E+00
         127  2.7880E+00  1.8034E+00  0.0000E+00  0.0000E+00  0.0000E+00  0.0000E+00  0.0000E+00  0.0000E+00  0.0000E+00  0.0000E+00
         127  2.9362E+00  1.9476E+00  0.0000E+00  0.0000E+00  0.0000E+00  0.0000E+00  0.0000E+00  0.0000E+00  0.0000E+00  0.0000E+00
         127  2.7911E+00  1.9476E+00  0.0000E+00  0.0000E+00  0.0000E+00  0.0000E+00  0.0000E+00  0.0000E+00  0.0000E+00  0.0000E+00
  Element nb      COORD1      COORD2         S11         S22         S33         S12         E11         E22         E33         E12
         128  2.9383E+00  2.0532E+00  0.0000E+00  0.0000E+00  0.0000E+00  0.0000E+00  0.0000E+00  0.0000E+00  0.0000E+00  0.0000E+00
         128  2.7933E+00  2.0532E+00  0.0000E+00  0.0000E+00  0.0000E+00  0.0000E+00  0.0000E+00  0.0000E+00  0.0000E+00  0.0000E+00
         128  2.9411E+00  2.1974E+00  0.0000E+00  0.0000E+00  0.0000E+00  0.0000E+00  0.0000E+00  0.0000E+00  0.0000E+00  0.0000E+00
         128  2.7964E+00  2.1974E+00  0.0000E+00  0.0000E+00  0.0000E+00  0.0000E+00  0.0000E+00  0.0000E+00  0.0000E+00  0.0000E+00
  Element nb      COORD1      COORD2         S11         S22         S33         S12         E11         E22         E33         E12
         129  2.9432E+00  2.3030E+00  0.0000E+00  0.0000E+00  0.0000E+00  0.0000E+00  0.0000E+00  0.0000E+00  0.0000E+00  0.0000E+00
         129  2.7986E+00  2.3030E+00  0.0000E+00  0.0000E+00  0.0000E+00  0.0000E+00  0.0000E+00  0.0000E+00  0.0000E+00  0.0000E+00
         129  2.9461E+00  2.4472E+00  0.0000E+00  0.0000E+00  0.0000E+00  0.0000E+00  0.0000E+00  0.0000E+00  0.0000E+00  0.0000E+00
         129  2.8017E+00  2.4472E+00  0.0000E+00  0.0000E+00  0.0000E+00  0.0000E+00  0.0000E+00  0.0000E+00  0.0000E+00  0.0000E+00
  Element nb      COORD1      COORD2         S11         S22         S33         S12         E11         E22         E33         E12
         130  2.6755E+00  3.0366E-01  0.0000E+00  0.0000E+00  0.0000E+00  0.0000E+00  0.0000E+00  0.0000E+00  0.0000E+00  0.0000E+00
         130  2.5299E+00  3.0371E-01  0.0000E+00  0.0000E+00  0.0000E+00  0.0000E+00  0.0000E+00  0.0000E+00  0.0000E+00  0.0000E+00
         130  2.6697E+00  4.4822E-01  0.0000E+00  0.0000E+00  0.0000E+00  0.0000E+00  0.0000E+00  0.0000E+00  0.0000E+00  0.0000E+00
         130  2.5237E+00  4.4828E-01  0.0000E+00  0.0000E+00  0.0000E+00  0.0000E+00  0.0000E+00  0.0000E+00  0.0000E+00  0.0000E+00
  Element nb      COORD1      COORD2         S11         S22         S33         S12         E11         E22         E33         E12
         131  2.6670E+00  5.5398E-01  0.0000E+00  0.0000E+00  0.0000E+00  0.0000E+00  0.0000E+00  0.0000E+00  0.0000E+00  0.0000E+00
         131  2.5208E+00  5.5405E-01  0.0000E+00  0.0000E+00  0.0000E+00  0.0000E+00  0.0000E+00  0.0000E+00  0.0000E+00  0.0000E+00
         131  2.6655E+00  6.9838E-01  0.0000E+00  0.0000E+00  0.0000E+00  0.0000E+00  0.0000E+00  0.0000E+00  0.0000E+00  0.0000E+00
         131  2.5192E+00  6.9845E-01  0.0000E+00  0.0000E+00  0.0000E+00  0.0000E+00  0.0000E+00  0.0000E+00  0.0000E+00  0.0000E+00
  Element nb      COORD1      COORD2         S11         S22         S33         S12         E11         E22         E33         E12
         132  2.6652E+00  8.0405E-01  0.0000E+00  0.0000E+00  0.0000E+00  0.0000E+00  0.0000E+00  0.0000E+00  0.0000E+00  0.0000E+00
         132  2.5189E+00  8.0413E-01  0.0000E+00  0.0000E+00  0.0000E+00  0.0000E+00  0.0000E+00  0.0000E+00  0.0000E+00  0.0000E+00
         132  2.6662E+00  9.4835E-01  0.0000E+00  0.0000E+00  0.0000E+00  0.0000E+00  0.0000E+00  0.0000E+00  0.0000E+00  0.0000E+00
         132  2.5199E+00  9.4843E-01  0.0000E+00  0.0000E+00  0.0000E+00  0.0000E+00  0.0000E+00  0.0000E+00  0.0000E+00  0.0000E+00
  Element nb      COORD1      COORD2         S11         S22         S33         S12         E11         E22         E33         E12
         133  2.6673E+00  1.0540E+00  0.0000E+00  0.0000E+00  0.0000E+00  0.0000E+00  0.0000E+00  0.0000E+00  0.0000E+00  0.0000E+00
         133  2.5211E+00  1.0540E+00  0.0000E+00  0.0000E+00  0.0000E+00  0.0000E+00  0.0000E+00  0.0000E+00  0.0000E+00  0.0000E+00
         133  2.6695E+00  1.1982E+00  0.0000E+00  0.0000E+00  0.0000E+00  0.0000E+00  0.0000E+00  0.0000E+00  0.0000E+00  0.0000E+00
         133  2.5235E+00  1.1983E+00  0.0000E+00  0.0000E+00  0.0000E+00  0.0000E+00  0.0000E+00  0.0000E+00  0.0000E+00  0.0000E+00
  Element nb      COORD1      COORD2         S11         S22         S33         S12         E11         E22         E33         E12
         134  2.6714E+00  1.3038E+00  0.0000E+00  0.0000E+00  0.0000E+00  0.0000E+00  0.0000E+00  0.0000E+00  0.0000E+00  0.0000E+00
         134  2.5254E+00  1.3039E+00  0.0000E+00  0.0000E+00  0.0000E+00  0.0000E+00  0.0000E+00  0.0000E+00  0.0000E+00  0.0000E+00
         134  2.6742E+00  1.4480E+00  0.0000E+00  0.0000E+00  0.0000E+00  0.0000E+00  0.0000E+00  0.0000E+00  0.0000E+00  0.0000E+00
         134  2.5284E+00  1.4481E+00  0.0000E+00  0.0000E+00  0.0000E+00  0.0000E+00  0.0000E+00  0.0000E+00  0.0000E+00  0.0000E+00
  Element nb      COORD1      COORD2         S11         S22         S33         S12         E11         E22         E33         E12
         135  2.6763E+00  1.5536E+00  0.0000E+00  0.0000E+00  0.0000E+00  0.0000E+00  0.0000E+00  0.0000E+00  0.0000E+00  0.0000E+00
         135  2.5307E+00  1.5537E+00  0.0000E+00  0.0000E+00  0.0000E+00  0.0000E+00  0.0000E+00  0.0000E+00  0.0000E+00  0.0000E+00
         135  2.6794E+00  1.6978E+00  0.0000E+00  0.0000E+00  0.0000E+00  0.0000E+00  0.0000E+00  0.0000E+00  0.0000E+00  0.0000E+00
         135  2.5339E+00  1.6979E+00  0.0000E+00  0.0000E+00  0.0000E+00  0.0000E+00  0.0000E+00  0.0000E+00  0.0000E+00  0.0000E+00
  Element nb      COORD1      COORD2         S11         S22         S33         S12         E11         E22         E33         E12
         136  2.6817E+00  1.8034E+00  0.0000E+00  0.0000E+00  0.0000E+00  0.0000E+00  0.0000E+00  0.0000E+00  0.0000E+00  0.0000E+00
         136  2.5364E+00  1.8035E+00  0.0000E+00  0.0000E+00  0.0000E+00  0.0000E+00  0.0000E+00  0.0000E+00  0.0000E+00  0.0000E+00
         136  2.6848E+00  1.9476E+00  0.0000E+00  0.0000E+00  0.0000E+00  0.0000E+00  0.0000E+00  0.0000E+00  0.0000E+00  0.0000E+00
         136  2.5397E+00  1.9477E+00  0.0000E+00  0.0000E+00  0.0000E+00  0.0000E+00  0.0000E+00  0.0000E+00  0.0000E+00  0.0000E+00
  Element nb      COORD1      COORD2         S11         S22         S33         S12         E11         E22         E33         E12
         137  2.6872E+00  2.0532E+00  0.0000E+00  0.0000E+00  0.0000E+00  0.0000E+00  0.0000E+00  0.0000E+00  0.0000E+00  0.0000E+00
         137  2.5422E+00  2.0532E+00  0.0000E+00  0.0000E+00  0.0000E+00  0.0000E+00  0.0000E+00  0.0000E+00  0.0000E+00  0.0000E+00
         137  2.6904E+00  2.1974E+00  0.0000E+00  0.0000E+00  0.0000E+00  0.0000E+00  0.0000E+00  0.0000E+00  0.0000E+00  0.0000E+00
         137  2.5456E+00  2.1974E+00  0.0000E+00  0.0000E+00  0.0000E+00  0.0000E+00  0.0000E+00  0.0000E+00  0.0000E+00  0.0000E+00
  Element nb      COORD1      COORD2         S11         S22         S33         S12         E11         E22         E33         E12
         138  2.6928E+00  2.3030E+00  0.0000E+00  0.0000E+00  0.0000E+00  0.0000E+00  0.0000E+00  0.0000E+00  0.0000E+00  0.0000E+00
         138  2.5481E+00  2.3030E+00  0.0000E+00  0.0000E+00  0.0000E+00  0.0000E+00  0.0000E+00  0.0000E+00  0.0000E+00  0.0000E+00
         138  2.6960E+00  2.4472E+00  0.0000E+00  0.0000E+00  0.0000E+00  0.0000E+00  0.0000E+00  0.0000E+00  0.0000E+00  0.0000E+00
         138  2.5516E+00  2.4472E+00  0.0000E+00  0.0000E+00  0.0000E+00  0.0000E+00  0.0000E+00  0.0000E+00  0.0000E+00  0.0000E+00
  Element nb      COORD1      COORD2         S11         S22         S33         S12         E11         E22         E33         E12
         139  2.4232E+00  3.0375E-01  0.0000E+00  0.0000E+00  0.0000E+00  0.0000E+00  0.0000E+00  0.0000E+00  0.0000E+00  0.0000E+00
         139  2.2776E+00  3.0380E-01  0.0000E+00  0.0000E+00  0.0000E+00  0.0000E+00  0.0000E+00  0.0000E+00  0.0000E+00  0.0000E+00
         139  2.4168E+00  4.4833E-01  0.0000E+00  0.0000E+00  0.0000E+00  0.0000E+00  0.0000E+00  0.0000E+00  0.0000E+00  0.0000E+00
         139  2.2708E+00  4.4839E-01  0.0000E+00  0.0000E+00  0.0000E+00  0.0000E+00  0.0000E+00  0.0000E+00  0.0000E+00  0.0000E+00
  Element nb      COORD1      COORD2         S11         S22         S33         S12         E11         E22         E33         E12
         140  2.4138E+00  5.5411E-01  0.0000E+00  0.0000E+00  0.0000E+00  0.0000E+00  0.0000E+00  0.0000E+00  0.0000E+00  0.0000E+00
         140  2.2676E+00  5.5418E-01  0.0000E+00  0.0000E+00  0.0000E+00  0.0000E+00  0.0000E+00  0.0000E+00  0.0000E+00  0.0000E+00
         140  2.4121E+00  6.9851E-01  0.0000E+00  0.0000E+00  0.0000E+00  0.0000E+00  0.0000E+00  0.0000E+00  0.0000E+00  0.0000E+00
         140  2.2658E+00  6.9858E-01  0.0000E+00  0.0000E+00  0.0000E+00  0.0000E+00  0.0000E+00  0.0000E+00  0.0000E+00  0.0000E+00
  Element nb      COORD1      COORD2         S11         S22         S33         S12         E11         E22         E33         E12
         141  2.4118E+00  8.0418E-01  0.0000E+00  0.0000E+00  0.0000E+00  0.0000E+00  0.0000E+00  0.0000E+00  0.0000E+00  0.0000E+00
         141  2.2655E+00  8.0426E-01  0.0000E+00  0.0000E+00  0.0000E+00  0.0000E+00  0.0000E+00  0.0000E+00  0.0000E+00  0.0000E+00
         141  2.4128E+00  9.4848E-01  0.0000E+00  0.0000E+00  0.0000E+00  0.0000E+00  0.0000E+00  0.0000E+00  0.0000E+00  0.0000E+00
         141  2.2666E+00  9.4855E-01  0.0000E+00  0.0000E+00  0.0000E+00  0.0000E+00  0.0000E+00  0.0000E+00  0.0000E+00  0.0000E+00
  Element nb      COORD1      COORD2         S11         S22         S33         S12         E11         E22         E33         E12
         142  2.4141E+00  1.0541E+00  0.0000E+00  0.0000E+00  0.0000E+00  0.0000E+00  0.0000E+00  0.0000E+00  0.0000E+00  0.0000E+00
         142  2.2679E+00  1.0542E+00  0.0000E+00  0.0000E+00  0.0000E+00  0.0000E+00  0.0000E+00  0.0000E+00  0.0000E+00  0.0000E+00
         142  2.4166E+00  1.1983E+00  0.0000E+00  0.0000E+00  0.0000E+00  0.0000E+00  0.0000E+00  0.0000E+00  0.0000E+00  0.0000E+00
         142  2.2705E+00  1.1984E+00  0.0000E+00  0.0000E+00  0.0000E+00  0.0000E+00  0.0000E+00  0.0000E+00  0.0000E+00  0.0000E+00
  Element nb      COORD1      COORD2         S11         S22         S33         S12         E11         E22         E33         E12
         143  2.4186E+00  1.3039E+00  0.0000E+00  0.0000E+00  0.0000E+00  0.0000E+00  0.0000E+00  0.0000E+00  0.0000E+00  0.0000E+00
         143  2.2726E+00  1.3040E+00  0.0000E+00  0.0000E+00  0.0000E+00  0.0000E+00  0.0000E+00  0.0000E+00  0.0000E+00  0.0000E+00
         143  2.4217E+00  1.4481E+00  0.0000E+00  0.0000E+00  0.0000E+00  0.0000E+00  0.0000E+00  0.0000E+00  0.0000E+00  0.0000E+00
         143  2.2759E+00  1.4482E+00  0.0000E+00  0.0000E+00  0.0000E+00  0.0000E+00  0.0000E+00  0.0000E+00  0.0000E+00  0.0000E+00
  Element nb      COORD1      COORD2         S11         S22         S33         S12         E11         E22         E33         E12
         144  2.4241E+00  1.5537E+00  0.0000E+00  0.0000E+00  0.0000E+00  0.0000E+00  0.0000E+00  0.0000E+00  0.0000E+00  0.0000E+00
         144  2.2784E+00  1.5538E+00  0.0000E+00  0.0000E+00  0.0000E+00  0.0000E+00  0.0000E+00  0.0000E+00  0.0000E+00  0.0000E+00
         144  2.4275E+00  1.6979E+00  0.0000E+00  0.0000E+00  0.0000E+00  0.0000E+00  0.0000E+00  0.0000E+00  0.0000E+00  0.0000E+00
         144  2.2820E+00  1.6980E+00  0.0000E+00  0.0000E+00  0.0000E+00  0.0000E+00  0.0000E+00  0.0000E+00  0.0000E+00  0.0000E+00
  Element nb      COORD1      COORD2         S11         S22         S33         S12         E11         E22         E33         E12
         145  2.4300E+00  1.8035E+00  0.0000E+00  0.0000E+00  0.0000E+00  0.0000E+00  0.0000E+00  0.0000E+00  0.0000E+00  0.0000E+00
         145  2.2847E+00  1.8035E+00  0.0000E+00  0.0000E+00  0.0000E+00  0.0000E+00  0.0000E+00  0.0000E+00  0.0000E+00  0.0000E+00
         145  2.4335E+00  1.9477E+00  0.0000E+00  0.0000E+00  0.0000E+00  0.0000E+00  0.0000E+00  0.0000E+00  0.0000E+00  0.0000E+00
         145  2.2884E+00  1.9477E+00  0.0000E+00  0.0000E+00  0.0000E+00  0.0000E+00  0.0000E+00  0.0000E+00  0.0000E+00  0.0000E+00
  Element nb      COORD1      COORD2         S11         S22         S33         S12         E11         E22         E33         E12
         146  2.4361E+00  2.0533E+00  0.0000E+00  0.0000E+00  0.0000E+00  0.0000E+00  0.0000E+00  0.0000E+00  0.0000E+00  0.0000E+00
         146  2.2911E+00  2.0533E+00  0.0000E+00  0.0000E+00  0.0000E+00  0.0000E+00  0.0000E+00  0.0000E+00  0.0000E+00  0.0000E+00
         146  2.4397E+00  2.1975E+00  0.0000E+00  0.0000E+00  0.0000E+00  0.0000E+00  0.0000E+00  0.0000E+00  0.0000E+00  0.0000E+00
         146  2.2949E+00  2.1975E+00  0.0000E+00  0.0000E+00  0.0000E+00  0.0000E+00  0.0000E+00  0.0000E+00  0.0000E+00  0.0000E+00
  Element nb      COORD1      COORD2         S11         S22         S33         S12         E11         E22         E33         E12
         147  2.4423E+00  2.3030E+00  0.0000E+00  0.0000E+00  0.0000E+00  0.0000E+00  0.0000E+00  0.0000E+00  0.0000E+00  0.0000E+00
         147  2.2977E+00  2.3030E+00  0.0000E+00  0.0000E+00  0.0000E+00  0.0000E+00  0.0000E+00  0.0000E+00  0.0000E+00  0.0000E+00
         147  2.4459E+00  2.4472E+00  0.0000E+00  0.0000E+00  0.0000E+00  0.0000E+00  0.0000E+00  0.0000E+00  0.0000E+00  0.0000E+00
         147  2.3014E+00  2.4472E+00  0.0000E+00  0.0000E+00  0.0000E+00  0.0000E+00  0.0000E+00  0.0000E+00  0.0000E+00  0.0000E+00
  Element nb      COORD1      COORD2         S11         S22         S33         S12         E11         E22         E33         E12
         148  2.1710E+00  3.0383E-01  0.0000E+00  0.0000E+00  0.0000E+00  0.0000E+00  0.0000E+00  0.0000E+00  0.0000E+00  0.0000E+00
         148  2.0253E+00  3.0388E-01  0.0000E+00  0.0000E+00  0.0000E+00  0.0000E+00  0.0000E+00  0.0000E+00  0.0000E+00  0.0000E+00
         148  2.1639E+00  4.4844E-01  0.0000E+00  0.0000E+00  0.0000E+00  0.0000E+00  0.0000E+00  0.0000E+00  0.0000E+00  0.0000E+00
         148  2.0179E+00  4.4850E-01  0.0000E+00  0.0000E+00  0.0000E+00  0.0000E+00  0.0000E+00  0.0000E+00  0.0000E+00  0.0000E+00
  Element nb      COORD1      COORD2         S11         S22         S33         S12         E11         E22         E33         E12
         149  2.1606E+00  5.5423E-01  0.0000E+00  0.0000E+00  0.0000E+00  0.0000E+00  0.0000E+00  0.0000E+00  0.0000E+00  0.0000E+00
         149  2.0144E+00  5.5430E-01  0.0000E+00  0.0000E+00  0.0000E+00  0.0000E+00  0.0000E+00  0.0000E+00  0.0000E+00  0.0000E+00
         149  2.1587E+00  6.9864E-01  0.0000E+00  0.0000E+00  0.0000E+00  0.0000E+00  0.0000E+00  0.0000E+00  0.0000E+00  0.0000E+00
         149  2.0124E+00  6.9871E-01  0.0000E+00  0.0000E+00  0.0000E+00  0.0000E+00  0.0000E+00  0.0000E+00  0.0000E+00  0.0000E+00
  Element nb      COORD1      COORD2         S11         S22         S33         S12         E11         E22         E33         E12
         150  2.1584E+00  8.0431E-01  0.0000E+00  0.0000E+00  0.0000E+00  0.0000E+00  0.0000E+00  0.0000E+00  0.0000E+00  0.0000E+00
         150  2.0121E+00  8.0439E-01  0.0000E+00  0.0000E+00  0.0000E+00  0.0000E+00  0.0000E+00  0.0000E+00  0.0000E+00  0.0000E+00
         150  2.1595E+00  9.4861E-01  0.0000E+00  0.0000E+00  0.0000E+00  0.0000E+00  0.0000E+00  0.0000E+00  0.0000E+00  0.0000E+00
         150  2.0133E+00  9.4868E-01  0.0000E+00  0.0000E+00  0.0000E+00  0.0000E+00  0.0000E+00  0.0000E+00  0.0000E+00  0.0000E+00
  Element nb      COORD1      COORD2         S11         S22         S33         S12         E11         E22         E33         E12
         151  2.1609E+00  1.0542E+00  0.0000E+00  0.0000E+00  0.0000E+00  0.0000E+00  0.0000E+00  0.0000E+00  0.0000E+00  0.0000E+00
         151  2.0147E+00  1.0543E+00  0.0000E+00  0.0000E+00  0.0000E+00  0.0000E+00  0.0000E+00  0.0000E+00  0.0000E+00  0.0000E+00
         151  2.1636E+00  1.1985E+00  0.0000E+00  0.0000E+00  0.0000E+00  0.0000E+00  0.0000E+00  0.0000E+00  0.0000E+00  0.0000E+00
         151  2.0175E+00  1.1985E+00  0.0000E+00  0.0000E+00  0.0000E+00  0.0000E+00  0.0000E+00  0.0000E+00  0.0000E+00  0.0000E+00
  Element nb      COORD1      COORD2         S11         S22         S33         S12         E11         E22         E33         E12
         152  2.1658E+00  1.3040E+00  0.0000E+00  0.0000E+00  0.0000E+00  0.0000E+00  0.0000E+00  0.0000E+00  0.0000E+00  0.0000E+00
         152  2.0199E+00  1.3041E+00  0.0000E+00  0.0000E+00  0.0000E+00  0.0000E+00  0.0000E+00  0.0000E+00  0.0000E+00  0.0000E+00
         152  2.1692E+00  1.4482E+00  0.0000E+00  0.0000E+00  0.0000E+00  0.0000E+00  0.0000E+00  0.0000E+00  0.0000E+00  0.0000E+00
         152  2.0234E+00  1.4483E+00  0.0000E+00  0.0000E+00  0.0000E+00  0.0000E+00  0.0000E+00  0.0000E+00  0.0000E+00  0.0000E+00
  Element nb      COORD1      COORD2         S11         S22         S33         S12         E11         E22         E33         E12
         153  2.1718E+00  1.5538E+00  0.0000E+00  0.0000E+00  0.0000E+00  0.0000E+00  0.0000E+00  0.0000E+00  0.0000E+00  0.0000E+00
         153  2.0262E+00  1.5538E+00  0.0000E+00  0.0000E+00  0.0000E+00  0.0000E+00  0.0000E+00  0.0000E+00  0.0000E+00  0.0000E+00
         153  2.1755E+00  1.6980E+00  0.0000E+00  0.0000E+00  0.0000E+00  0.0000E+00  0.0000E+00  0.0000E+00  0.0000E+00  0.0000E+00
         153  2.0301E+00  1.6980E+00  0.0000E+00  0.0000E+00  0.0000E+00  0.0000E+00  0.0000E+00  0.0000E+00  0.0000E+00  0.0000E+00
  Element nb      COORD1      COORD2         S11         S22         S33         S12         E11         E22         E33         E12
         154  2.1783E+00  1.8036E+00  0.0000E+00  0.0000E+00  0.0000E+00  0.0000E+00  0.0000E+00  0.0000E+00  0.0000E+00  0.0000E+00
         154  2.0330E+00  1.8036E+00  0.0000E+00  0.0000E+00  0.0000E+00  0.0000E+00  0.0000E+00  0.0000E+00  0.0000E+00  0.0000E+00
         154  2.1822E+00  1.9477E+00  0.0000E+00  0.0000E+00  0.0000E+00  0.0000E+00  0.0000E+00  0.0000E+00  0.0000E+00  0.0000E+00
         154  2.0371E+00  1.9478E+00  0.0000E+00  0.0000E+00  0.0000E+00  0.0000E+00  0.0000E+00  0.0000E+00  0.0000E+00  0.0000E+00
  Element nb      COORD1      COORD2         S11         S22         S33         S12         E11         E22         E33         E12
         155  2.1850E+00  2.0533E+00  0.0000E+00  0.0000E+00  0.0000E+00  0.0000E+00  0.0000E+00  0.0000E+00  0.0000E+00  0.0000E+00
         155  2.0401E+00  2.0533E+00  0.0000E+00  0.0000E+00  0.0000E+00  0.0000E+00  0.0000E+00  0.0000E+00  0.0000E+00  0.0000E+00
         155  2.1889E+00  2.1975E+00  0.0000E+00  0.0000E+00  0.0000E+00  0.0000E+00  0.0000E+00  0.0000E+00  0.0000E+00  0.0000E+00
         155  2.0442E+00  2.1975E+00  0.0000E+00  0.0000E+00  0.0000E+00  0.0000E+00  0.0000E+00  0.0000E+00  0.0000E+00  0.0000E+00
  Element nb      COORD1      COORD2         S11         S22         S33         S12         E11         E22         E33         E12
         156  2.1918E+00  2.3030E+00  0.0000E+00  0.0000E+00  0.0000E+00  0.0000E+00  0.0000E+00  0.0000E+00  0.0000E+00  0.0000E+00
         156  2.0472E+00  2.3030E+00  0.0000E+00  0.0000E+00  0.0000E+00  0.0000E+00  0.0000E+00  0.0000E+00  0.0000E+00  0.0000E+00
         156  2.1957E+00  2.4472E+00  0.0000E+00  0.0000E+00  0.0000E+00  0.0000E+00  0.0000E+00  0.0000E+00  0.0000E+00  0.0000E+00
         156  2.0513E+00  2.4472E+00  0.0000E+00  0.0000E+00  0.0000E+00  0.0000E+00  0.0000E+00  0.0000E+00  0.0000E+00  0.0000E+00
  Element nb      COORD1      COORD2         S11         S22         S33         S12         E11         E22         E33         E12
         157  1.9187E+00  3.0392E-01  0.0000E+00  0.0000E+00  0.0000E+00  0.0000E+00  0.0000E+00  0.0000E+00  0.0000E+00  0.0000E+00
         157  1.7730E+00  3.0397E-01  0.0000E+00  0.0000E+00  0.0000E+00  0.0000E+00  0.0000E+00  0.0000E+00  0.0000E+00  0.0000E+00
         157  1.9110E+00  4.4855E-01  0.0000E+00  0.0000E+00  0.0000E+00  0.0000E+00  0.0000E+00  0.0000E+00  0.0000E+00  0.0000E+00
         157  1.7650E+00  4.4861E-01  0.0000E+00  0.0000E+00  0.0000E+00  0.0000E+00  0.0000E+00  0.0000E+00  0.0000E+00  0.0000E+00
  Element nb      COORD1      COORD2         S11         S22         S33         S12         E11         E22         E33         E12
         158  1.9074E+00  5.5435E-01  0.0000E+00  0.0000E+00  0.0000E+00  0.0000E+00  0.0000E+00  0.0000E+00  0.0000E+00  0.0000E+00
         158  1.7612E+00  5.5442E-01  0.0000E+00  0.0000E+00  0.0000E+00  0.0000E+00  0.0000E+00  0.0000E+00  0.0000E+00  0.0000E+00
         158  1.9053E+00  6.9877E-01  0.0000E+00  0.0000E+00  0.0000E+00  0.0000E+00  0.0000E+00  0.0000E+00  0.0000E+00  0.0000E+00
         158  1.7590E+00  6.9884E-01  0.0000E+00  0.0000E+00  0.0000E+00  0.0000E+00  0.0000E+00  0.0000E+00  0.0000E+00  0.0000E+00
  Element nb      COORD1      COORD2         S11         S22         S33         S12         E11         E22         E33         E12
         159  1.9050E+00  8.0444E-01  0.0000E+00  0.0000E+00  0.0000E+00  0.0000E+00  0.0000E+00  0.0000E+00  0.0000E+00  0.0000E+00
         159  1.7587E+00  8.0452E-01  0.0000E+00  0.0000E+00  0.0000E+00  0.0000E+00  0.0000E+00  0.0000E+00  0.0000E+00  0.0000E+00
         159  1.9062E+00  9.4873E-01  0.0000E+00  0.0000E+00  0.0000E+00  0.0000E+00  0.0000E+00  0.0000E+00  0.0000E+00  0.0000E+00
         159  1.7599E+00  9.4881E-01  0.0000E+00  0.0000E+00  0.0000E+00  0.0000E+00  0.0000E+00  0.0000E+00  0.0000E+00  0.0000E+00
  Element nb      COORD1      COORD2         S11         S22         S33         S12         E11         E22         E33         E12
         160  1.9077E+00  1.0543E+00  0.0000E+00  0.0000E+00  0.0000E+00  0.0000E+00  0.0000E+00  0.0000E+00  0.0000E+00  0.0000E+00
         160  1.7615E+00  1.0544E+00  0.0000E+00  0.0000E+00  0.0000E+00  0.0000E+00  0.0000E+00  0.0000E+00  0.0000E+00  0.0000E+00
         160  1.9106E+00  1.1986E+00  0.0000E+00  0.0000E+00  0.0000E+00  0.0000E+00  0.0000E+00  0.0000E+00  0.0000E+00  0.0000E+00
         160  1.7646E+00  1.1986E+00  0.0000E+00  0.0000E+00  0.0000E+00  0.0000E+00  0.0000E+00  0.0000E+00  0.0000E+00  0.0000E+00
  Element nb      COORD1      COORD2         S11         S22         S33         S12         E11         E22         E33         E12
         161  1.9130E+00  1.3041E+00  0.0000E+00  0.0000E+00  0.0000E+00  0.0000E+00  0.0000E+00  0.0000E+00  0.0000E+00  0.0000E+00
         161  1.7671E+00  1.3042E+00  0.0000E+00  0.0000E+00  0.0000E+00  0.0000E+00  0.0000E+00  0.0000E+00  0.0000E+00  0.0000E+00
         161  1.9167E+00  1.4483E+00  0.0000E+00  0.0000E+00  0.0000E+00  0.0000E+00  0.0000E+00  0.0000E+00  0.0000E+00  0.0000E+00
         161  1.7710E+00  1.4484E+00  0.0000E+00  0.0000E+00  0.0000E+00  0.0000E+00  0.0000E+00  0.0000E+00  0.0000E+00  0.0000E+00
  Element nb      COORD1      COORD2         S11         S22         S33         S12         E11         E22         E33         E12
         162  1.9196E+00  1.5539E+00  0.0000E+00  0.0000E+00  0.0000E+00  0.0000E+00  0.0000E+00  0.0000E+00  0.0000E+00  0.0000E+00
         162  1.7739E+00  1.5539E+00  0.0000E+00  0.0000E+00  0.0000E+00  0.0000E+00  0.0000E+00  0.0000E+00  0.0000E+00  0.0000E+00
         162  1.9236E+00  1.6981E+00  0.0000E+00  0.0000E+00  0.0000E+00  0.0000E+00  0.0000E+00  0.0000E+00  0.0000E+00  0.0000E+00
         162  1.7782E+00  1.6981E+00  0.0000E+00  0.0000E+00  0.0000E+00  0.0000E+00  0.0000E+00  0.0000E+00  0.0000E+00  0.0000E+00
  Element nb      COORD1      COORD2         S11         S22         S33         S12         E11         E22         E33         E12
         163  1.9266E+00  1.8036E+00  0.0000E+00  0.0000E+00  0.0000E+00  0.0000E+00  0.0000E+00  0.0000E+00  0.0000E+00  0.0000E+00
         163  1.7813E+00  1.8037E+00  0.0000E+00  0.0000E+00  0.0000E+00  0.0000E+00  0.0000E+00  0.0000E+00  0.0000E+00  0.0000E+00
         163  1.9308E+00  1.9478E+00  0.0000E+00  0.0000E+00  0.0000E+00  0.0000E+00  0.0000E+00  0.0000E+00  0.0000E+00  0.0000E+00
         163  1.7857E+00  1.9478E+00  0.0000E+00  0.0000E+00  0.0000E+00  0.0000E+00  0.0000E+00  0.0000E+00  0.0000E+00  0.0000E+00
  Element nb      COORD1      COORD2         S11         S22         S33         S12         E11         E22         E33         E12
         164  1.9339E+00  2.0533E+00  0.0000E+00  0.0000E+00  0.0000E+00  0.0000E+00  0.0000E+00  0.0000E+00  0.0000E+00  0.0000E+00
         164  1.7890E+00  2.0534E+00  0.0000E+00  0.0000E+00  0.0000E+00  0.0000E+00  0.0000E+00  0.0000E+00  0.0000E+00  0.0000E+00
         164  1.9382E+00  2.1975E+00  0.0000E+00  0.0000E+00  0.0000E+00  0.0000E+00  0.0000E+00  0.0000E+00  0.0000E+00  0.0000E+00
         164  1.7934E+00  2.1975E+00  0.0000E+00  0.0000E+00  0.0000E+00  0.0000E+00  0.0000E+00  0.0000E+00  0.0000E+00  0.0000E+00
  Element nb      COORD1      COORD2         S11         S22         S33         S12         E11         E22         E33         E12
         165  1.9413E+00  2.3031E+00  0.0000E+00  0.0000E+00  0.0000E+00  0.0000E+00  0.0000E+00  0.0000E+00  0.0000E+00  0.0000E+00
         165  1.7967E+00  2.3031E+00  0.0000E+00  0.0000E+00  0.0000E+00  0.0000E+00  0.0000E+00  0.0000E+00  0.0000E+00  0.0000E+00
         165  1.9456E+00  2.4472E+00  0.0000E+00  0.0000E+00  0.0000E+00  0.0000E+00  0.0000E+00  0.0000E+00  0.0000E+00  0.0000E+00
         165  1.8012E+00  2.4472E+00  0.0000E+00  0.0000E+00  0.0000E+00  0.0000E+00  0.0000E+00  0.0000E+00  0.0000E+00  0.0000E+00
  Element nb      COORD1      COORD2         S11         S22         S33         S12         E11         E22         E33         E12
         166  1.6665E+00  3.0410E-01  0.0000E+00  0.0000E+00  0.0000E+00  0.0000E+00  0.0000E+00  0.0000E+00  0.0000E+00  0.0000E+00
         166  1.5210E+00  3.0440E-01  0.0000E+00  0.0000E+00  0.0000E+00  0.0000E+00  0.0000E+00  0.0000E+00  0.0000E+00  0.0000E+00
         166  1.6582E+00  4.4884E-01  0.0000E+00  0.0000E+00  0.0000E+00  0.0000E+00  0.0000E+00  0.0000E+00  0.0000E+00  0.0000E+00
         166  1.5125E+00  4.4939E-01  0.0000E+00  0.0000E+00  0.0000E+00  0.0000E+00  0.0000E+00  0.0000E+00  0.0000E+00  0.0000E+00
  Element nb      COORD1      COORD2         S11         S22         S33         S12         E11         E22         E33         E12
         167  1.6544E+00  5.5470E-01  0.0000E+00  0.0000E+00  0.0000E+00  0.0000E+00  0.0000E+00  0.0000E+00  0.0000E+00  0.0000E+00
         167  1.5085E+00  5.5541E-01  0.0000E+00  0.0000E+00  0.0000E+00  0.0000E+00  0.0000E+00  0.0000E+00  0.0000E+00  0.0000E+00
         167  1.6521E+00  6.9919E-01  0.0000E+00  0.0000E+00  0.0000E+00  0.0000E+00  0.0000E+00  0.0000E+00  0.0000E+00  0.0000E+00
         167  1.5062E+00  7.0007E-01  0.0000E+00  0.0000E+00  0.0000E+00  0.0000E+00  0.0000E+00  0.0000E+00  0.0000E+00  0.0000E+00
  Element nb      COORD1      COORD2         S11         S22         S33         S12         E11         E22         E33         E12
         168  1.6517E+00  8.0490E-01  0.0000E+00  0.0000E+00  0.0000E+00  0.0000E+00  0.0000E+00  0.0000E+00  0.0000E+00  0.0000E+00
         168  1.5058E+00  8.0586E-01  0.0000E+00  0.0000E+00  0.0000E+00  0.0000E+00  0.0000E+00  0.0000E+00  0.0000E+00  0.0000E+00
         168  1.6530E+00  9.4921E-01  0.0000E+00  0.0000E+00  0.0000E+00  0.0000E+00  0.0000E+00  0.0000E+00  0.0000E+00  0.0000E+00
         168  1.5072E+00  9.5022E-01  0.0000E+00  0.0000E+00  0.0000E+00  0.0000E+00  0.0000E+00  0.0000E+00  0.0000E+00  0.0000E+00
  Element nb      COORD1      COORD2         S11         S22         S33         S12         E11         E22         E33         E12
         169  1.6546E+00  1.0548E+00  0.0000E+00  0.0000E+00  0.0000E+00  0.0000E+00  0.0000E+00  0.0000E+00  0.0000E+00  0.0000E+00
         169  1.5089E+00  1.0558E+00  0.0000E+00  0.0000E+00  0.0000E+00  0.0000E+00  0.0000E+00  0.0000E+00  0.0000E+00  0.0000E+00
         169  1.6578E+00  1.1990E+00  0.0000E+00  0.0000E+00  0.0000E+00  0.0000E+00  0.0000E+00  0.0000E+00  0.0000E+00  0.0000E+00
         169  1.5121E+00  1.2000E+00  0.0000E+00  0.0000E+00  0.0000E+00  0.0000E+00  0.0000E+00  0.0000E+00  0.0000E+00  0.0000E+00
  Element nb      COORD1      COORD2         S11         S22         S33         S12         E11         E22         E33         E12
         170  1.6604E+00  1.3046E+00  0.0000E+00  0.0000E+00  0.0000E+00  0.0000E+00  0.0000E+00  0.0000E+00  0.0000E+00  0.0000E+00
         170  1.5148E+00  1.3055E+00  0.0000E+00  0.0000E+00  0.0000E+00  0.0000E+00  0.0000E+00  0.0000E+00  0.0000E+00  0.0000E+00
         170  1.6644E+00  1.4487E+00  0.0000E+00  0.0000E+00  0.0000E+00  0.0000E+00  0.0000E+00  0.0000E+00  0.0000E+00  0.0000E+00
         170  1.5189E+00  1.4496E+00  0.0000E+00  0.0000E+00  0.0000E+00  0.0000E+00  0.0000E+00  0.0000E+00  0.0000E+00  0.0000E+00
  Element nb      COORD1      COORD2         S11         S22         S33         S12         E11         E22         E33         E12
         171  1.6674E+00  1.5543E+00  0.0000E+00  0.0000E+00  0.0000E+00  0.0000E+00  0.0000E+00  0.0000E+00  0.0000E+00  0.0000E+00
         171  1.5221E+00  1.5551E+00  0.0000E+00  0.0000E+00  0.0000E+00  0.0000E+00  0.0000E+00  0.0000E+00  0.0000E+00  0.0000E+00
         171  1.6718E+00  1.6984E+00  0.0000E+00  0.0000E+00  0.0000E+00  0.0000E+00  0.0000E+00  0.0000E+00  0.0000E+00  0.0000E+00
         171  1.5266E+00  1.6992E+00  0.0000E+00  0.0000E+00  0.0000E+00  0.0000E+00  0.0000E+00  0.0000E+00  0.0000E+00  0.0000E+00
  Element nb      COORD1      COORD2         S11         S22         S33         S12         E11         E22         E33         E12
         172  1.6750E+00  1.8039E+00  0.0000E+00  0.0000E+00  0.0000E+00  0.0000E+00  0.0000E+00  0.0000E+00  0.0000E+00  0.0000E+00
         172  1.5300E+00  1.8046E+00  0.0000E+00  0.0000E+00  0.0000E+00  0.0000E+00  0.0000E+00  0.0000E+00  0.0000E+00  0.0000E+00
         172  1.6796E+00  1.9480E+00  0.0000E+00  0.0000E+00  0.0000E+00  0.0000E+00  0.0000E+00  0.0000E+00  0.0000E+00  0.0000E+00
         172  1.5347E+00  1.9486E+00  0.0000E+00  0.0000E+00  0.0000E+00  0.0000E+00  0.0000E+00  0.0000E+00  0.0000E+00  0.0000E+00
  Element nb      COORD1      COORD2         S11         S22         S33         S12         E11         E22         E33         E12
         173  1.6829E+00  2.0536E+00  0.0000E+00  0.0000E+00  0.0000E+00  0.0000E+00  0.0000E+00  0.0000E+00  0.0000E+00  0.0000E+00
         173  1.5381E+00  2.0541E+00  0.0000E+00  0.0000E+00  0.0000E+00  0.0000E+00  0.0000E+00  0.0000E+00  0.0000E+00  0.0000E+00
         173  1.6875E+00  2.1977E+00  0.0000E+00  0.0000E+00  0.0000E+00  0.0000E+00  0.0000E+00  0.0000E+00  0.0000E+00  0.0000E+00
         173  1.5429E+00  2.1981E+00  0.0000E+00  0.0000E+00  0.0000E+00  0.0000E+00  0.0000E+00  0.0000E+00  0.0000E+00  0.0000E+00
  Element nb      COORD1      COORD2         S11         S22         S33         S12         E11         E22         E33         E12
         174  1.6909E+00  2.3032E+00  0.0000E+00  0.0000E+00  0.0000E+00  0.0000E+00  0.0000E+00  0.0000E+00  0.0000E+00  0.0000E+00
         174  1.5464E+00  2.3035E+00  0.0000E+00  0.0000E+00  0.0000E+00  0.0000E+00  0.0000E+00  0.0000E+00  0.0000E+00  0.0000E+00
         174  1.6955E+00  2.4473E+00  0.0000E+00  0.0000E+00  0.0000E+00  0.0000E+00  0.0000E+00  0.0000E+00  0.0000E+00  0.0000E+00
         174  1.5511E+00  2.4473E+00  0.0000E+00  0.0000E+00  0.0000E+00  0.0000E+00  0.0000E+00  0.0000E+00  0.0000E+00  0.0000E+00
  Element nb      COORD1      COORD2         S11         S22         S33         S12         E11         E22         E33         E12
         175  1.4146E+00  3.0562E-01  0.0000E+00  0.0000E+00  0.0000E+00  0.0000E+00  0.0000E+00  0.0000E+00  0.0000E+00  0.0000E+00
         175  1.2692E+00  3.0867E-01  0.0000E+00  0.0000E+00  0.0000E+00  0.0000E+00  0.0000E+00  0.0000E+00  0.0000E+00  0.0000E+00
         175  1.4060E+00  4.5122E-01  0.0000E+00  0.0000E+00  0.0000E+00  0.0000E+00  0.0000E+00  0.0000E+00  0.0000E+00  0.0000E+00
         175  1.2608E+00  4.5566E-01  0.0000E+00  0.0000E+00  0.0000E+00  0.0000E+00  0.0000E+00  0.0000E+00  0.0000E+00  0.0000E+00
  Element nb      COORD1      COORD2         S11         S22         S33         S12         E11         E22         E33         E12
         176  1.4021E+00  5.5756E-01  0.0000E+00  0.0000E+00  0.0000E+00  0.0000E+00  0.0000E+00  0.0000E+00  0.0000E+00  0.0000E+00
         176  1.2571E+00  5.6273E-01  0.0000E+00  0.0000E+00  0.0000E+00  0.0000E+00  0.0000E+00  0.0000E+00  0.0000E+00  0.0000E+00
         176  1.3998E+00  7.0249E-01  0.0000E+00  0.0000E+00  0.0000E+00  0.0000E+00  0.0000E+00  0.0000E+00  0.0000E+00  0.0000E+00
         176  1.2551E+00  7.0825E-01  0.0000E+00  0.0000E+00  0.0000E+00  0.0000E+00  0.0000E+00  0.0000E+00  0.0000E+00  0.0000E+00
  Element nb      COORD1      COORD2         S11         S22         S33         S12         E11         E22         E33         E12
         177  1.3995E+00  8.0839E-01  0.0000E+00  0.0000E+00  0.0000E+00  0.0000E+00  0.0000E+00  0.0000E+00  0.0000E+00  0.0000E+00
         177  1.2550E+00  8.1436E-01  0.0000E+00  0.0000E+00  0.0000E+00  0.0000E+00  0.0000E+00  0.0000E+00  0.0000E+00  0.0000E+00
         177  1.4010E+00  9.5278E-01  0.0000E+00  0.0000E+00  0.0000E+00  0.0000E+00  0.0000E+00  0.0000E+00  0.0000E+00  0.0000E+00
         177  1.2566E+00  9.5873E-01  0.0000E+00  0.0000E+00  0.0000E+00  0.0000E+00  0.0000E+00  0.0000E+00  0.0000E+00  0.0000E+00
  Element nb      COORD1      COORD2         S11         S22         S33         S12         E11         E22         E33         E12
         178  1.4027E+00  1.0584E+00  0.0000E+00  0.0000E+00  0.0000E+00  0.0000E+00  0.0000E+00  0.0000E+00  0.0000E+00  0.0000E+00
         178  1.2584E+00  1.0642E+00  0.0000E+00  0.0000E+00  0.0000E+00  0.0000E+00  0.0000E+00  0.0000E+00  0.0000E+00  0.0000E+00
         178  1.4060E+00  1.2024E+00  0.0000E+00  0.0000E+00  0.0000E+00  0.0000E+00  0.0000E+00  0.0000E+00  0.0000E+00  0.0000E+00
         178  1.2618E+00  1.2079E+00  0.0000E+00  0.0000E+00  0.0000E+00  0.0000E+00  0.0000E+00  0.0000E+00  0.0000E+00  0.0000E+00
  Element nb      COORD1      COORD2         S11         S22         S33         S12         E11         E22         E33         E12
         179  1.4087E+00  1.3078E+00  0.0000E+00  0.0000E+00  0.0000E+00  0.0000E+00  0.0000E+00  0.0000E+00  0.0000E+00  0.0000E+00
         179  1.2646E+00  1.3130E+00  0.0000E+00  0.0000E+00  0.0000E+00  0.0000E+00  0.0000E+00  0.0000E+00  0.0000E+00  0.0000E+00
         179  1.4129E+00  1.4517E+00  0.0000E+00  0.0000E+00  0.0000E+00  0.0000E+00  0.0000E+00  0.0000E+00  0.0000E+00  0.0000E+00
         179  1.2688E+00  1.4564E+00  0.0000E+00  0.0000E+00  0.0000E+00  0.0000E+00  0.0000E+00  0.0000E+00  0.0000E+00  0.0000E+00
  Element nb      COORD1      COORD2         S11         S22         S33         S12         E11         E22         E33         E12
         180  1.4161E+00  1.5570E+00  0.0000E+00  0.0000E+00  0.0000E+00  0.0000E+00  0.0000E+00  0.0000E+00  0.0000E+00  0.0000E+00
         180  1.2720E+00  1.5614E+00  0.0000E+00  0.0000E+00  0.0000E+00  0.0000E+00  0.0000E+00  0.0000E+00  0.0000E+00  0.0000E+00
         180  1.4207E+00  1.7008E+00  0.0000E+00  0.0000E+00  0.0000E+00  0.0000E+00  0.0000E+00  0.0000E+00  0.0000E+00  0.0000E+00
         180  1.2766E+00  1.7047E+00  0.0000E+00  0.0000E+00  0.0000E+00  0.0000E+00  0.0000E+00  0.0000E+00  0.0000E+00  0.0000E+00
  Element nb      COORD1      COORD2         S11         S22         S33         S12         E11         E22         E33         E12
         181  1.4242E+00  1.8061E+00  0.0000E+00  0.0000E+00  0.0000E+00  0.0000E+00  0.0000E+00  0.0000E+00  0.0000E+00  0.0000E+00
         181  1.2801E+00  1.8096E+00  0.0000E+00  0.0000E+00  0.0000E+00  0.0000E+00  0.0000E+00  0.0000E+00  0.0000E+00  0.0000E+00
         181  1.4289E+00  1.9499E+00  0.0000E+00  0.0000E+00  0.0000E+00  0.0000E+00  0.0000E+00  0.0000E+00  0.0000E+00  0.0000E+00
         181  1.2848E+00  1.9528E+00  0.0000E+00  0.0000E+00  0.0000E+00  0.0000E+00  0.0000E+00  0.0000E+00  0.0000E+00  0.0000E+00
  Element nb      COORD1      COORD2         S11         S22         S33         S12         E11         E22         E33         E12
         182  1.4324E+00  2.0552E+00  0.0000E+00  0.0000E+00  0.0000E+00  0.0000E+00  0.0000E+00  0.0000E+00  0.0000E+00  0.0000E+00
         182  1.2883E+00  2.0576E+00  0.0000E+00  0.0000E+00  0.0000E+00  0.0000E+00  0.0000E+00  0.0000E+00  0.0000E+00  0.0000E+00
         182  1.4372E+00  2.1989E+00  0.0000E+00  0.0000E+00  0.0000E+00  0.0000E+00  0.0000E+00  0.0000E+00  0.0000E+00  0.0000E+00
         182  1.2931E+00  2.2007E+00  0.0000E+00  0.0000E+00  0.0000E+00  0.0000E+00  0.0000E+00  0.0000E+00  0.0000E+00  0.0000E+00
  Element nb      COORD1      COORD2         S11         S22         S33         S12         E11         E22         E33         E12
         183  1.4407E+00  2.3040E+00  0.0000E+00  0.0000E+00  0.0000E+00  0.0000E+00  0.0000E+00  0.0000E+00  0.0000E+00  0.0000E+00
         183  1.2965E+00  2.3052E+00  0.0000E+00  0.0000E+00  0.0000E+00  0.0000E+00  0.0000E+00  0.0000E+00  0.0000E+00  0.0000E+00
         183  1.4454E+00  2.4475E+00  0.0000E+00  0.0000E+00  0.0000E+00  0.0000E+00  0.0000E+00  0.0000E+00  0.0000E+00  0.0000E+00
         183  1.3011E+00  2.4478E+00  0.0000E+00  0.0000E+00  0.0000E+00  0.0000E+00  0.0000E+00  0.0000E+00  0.0000E+00  0.0000E+00
  Element nb      COORD1      COORD2         S11         S22         S33         S12         E11         E22         E33         E12
         184  1.1620E+00  3.1375E-01  0.0000E+00  0.0000E+00  0.0000E+00  0.0000E+00  0.0000E+00  0.0000E+00  0.0000E+00  0.0000E+00
         184  1.0147E+00  3.2459E-01  0.0000E+00  0.0000E+00  0.0000E+00  0.0000E+00  0.0000E+00  0.0000E+00  0.0000E+00  0.0000E+00
         184  1.1544E+00  4.6265E-01  0.0000E+00  0.0000E+00  0.0000E+00  0.0000E+00  0.0000E+00  0.0000E+00  0.0000E+00  0.0000E+00
         184  1.0090E+00  4.7732E-01  0.0000E+00  0.0000E+00  0.0000E+00  0.0000E+00  0.0000E+00  0.0000E+00  0.0000E+00  0.0000E+00
  Element nb      COORD1      COORD2         S11         S22         S33         S12         E11         E22         E33         E12
         185  1.1512E+00  5.7060E-01  0.0000E+00  0.0000E+00  0.0000E+00  0.0000E+00  0.0000E+00  0.0000E+00  0.0000E+00  0.0000E+00
         185  1.0069E+00  5.8694E-01  0.0000E+00  0.0000E+00  0.0000E+00  0.0000E+00  0.0000E+00  0.0000E+00  0.0000E+00  0.0000E+00
         185  1.1498E+00  7.1661E-01  0.0000E+00  0.0000E+00  0.0000E+00  0.0000E+00  0.0000E+00  0.0000E+00  0.0000E+00  0.0000E+00
         185  1.0068E+00  7.3368E-01  0.0000E+00  0.0000E+00  0.0000E+00  0.0000E+00  0.0000E+00  0.0000E+00  0.0000E+00  0.0000E+00
  Element nb      COORD1      COORD2         S11         S22         S33         S12         E11         E22         E33         E12
         186  1.1500E+00  8.2280E-01  0.0000E+00  0.0000E+00  0.0000E+00  0.0000E+00  0.0000E+00  0.0000E+00  0.0000E+00  0.0000E+00
         186  1.0076E+00  8.3990E-01  0.0000E+00  0.0000E+00  0.0000E+00  0.0000E+00  0.0000E+00  0.0000E+00  0.0000E+00  0.0000E+00
         186  1.1518E+00  9.6692E-01  0.0000E+00  0.0000E+00  0.0000E+00  0.0000E+00  0.0000E+00  0.0000E+00  0.0000E+00  0.0000E+00
         186  1.0100E+00  9.8333E-01  0.0000E+00  0.0000E+00  0.0000E+00  0.0000E+00  0.0000E+00  0.0000E+00  0.0000E+00  0.0000E+00
  Element nb      COORD1      COORD2         S11         S22         S33         S12         E11         E22         E33         E12
         187  1.1538E+00  1.0721E+00  0.0000E+00  0.0000E+00  0.0000E+00  0.0000E+00  0.0000E+00  0.0000E+00  0.0000E+00  0.0000E+00
         187  1.0121E+00  1.0878E+00  0.0000E+00  0.0000E+00  0.0000E+00  0.0000E+00  0.0000E+00  0.0000E+00  0.0000E+00  0.0000E+00
         187  1.1572E+00  1.2152E+00  0.0000E+00  0.0000E+00  0.0000E+00  0.0000E+00  0.0000E+00  0.0000E+00  0.0000E+00  0.0000E+00
         187  1.0155E+00  1.2297E+00  0.0000E+00  0.0000E+00  0.0000E+00  0.0000E+00  0.0000E+00  0.0000E+00  0.0000E+00  0.0000E+00
  Element nb      COORD1      COORD2         S11         S22         S33         S12         E11         E22         E33         E12
         188  1.1599E+00  1.3199E+00  0.0000E+00  0.0000E+00  0.0000E+00  0.0000E+00  0.0000E+00  0.0000E+00  0.0000E+00  0.0000E+00
         188  1.0182E+00  1.3334E+00  0.0000E+00  0.0000E+00  0.0000E+00  0.0000E+00  0.0000E+00  0.0000E+00  0.0000E+00  0.0000E+00
         188  1.1641E+00  1.4626E+00  0.0000E+00  0.0000E+00  0.0000E+00  0.0000E+00  0.0000E+00  0.0000E+00  0.0000E+00  0.0000E+00
         188  1.0221E+00  1.4747E+00  0.0000E+00  0.0000E+00  0.0000E+00  0.0000E+00  0.0000E+00  0.0000E+00  0.0000E+00  0.0000E+00
  Element nb      COORD1      COORD2         S11         S22         S33         S12         E11         E22         E33         E12
         189  1.1673E+00  1.5670E+00  0.0000E+00  0.0000E+00  0.0000E+00  0.0000E+00  0.0000E+00  0.0000E+00  0.0000E+00  0.0000E+00
         189  1.0251E+00  1.5780E+00  0.0000E+00  0.0000E+00  0.0000E+00  0.0000E+00  0.0000E+00  0.0000E+00  0.0000E+00  0.0000E+00
         189  1.1718E+00  1.7096E+00  0.0000E+00  0.0000E+00  0.0000E+00  0.0000E+00  0.0000E+00  0.0000E+00  0.0000E+00  0.0000E+00
         189  1.0294E+00  1.7190E+00  0.0000E+00  0.0000E+00  0.0000E+00  0.0000E+00  0.0000E+00  0.0000E+00  0.0000E+00  0.0000E+00
  Element nb      COORD1      COORD2         S11         S22         S33         S12         E11         E22         E33         E12
         190  1.1751E+00  1.8139E+00  0.0000E+00  0.0000E+00  0.0000E+00  0.0000E+00  0.0000E+00  0.0000E+00  0.0000E+00  0.0000E+00
         190  1.0325E+00  1.8222E+00  0.0000E+00  0.0000E+00  0.0000E+00  0.0000E+00  0.0000E+00  0.0000E+00  0.0000E+00  0.0000E+00
         190  1.1798E+00  1.9563E+00  0.0000E+00  0.0000E+00  0.0000E+00  0.0000E+00  0.0000E+00  0.0000E+00  0.0000E+00  0.0000E+00
         190  1.0368E+00  1.9630E+00  0.0000E+00  0.0000E+00  0.0000E+00  0.0000E+00  0.0000E+00  0.0000E+00  0.0000E+00  0.0000E+00
  Element nb      COORD1      COORD2         S11         S22         S33         S12         E11         E22         E33         E12
         191  1.1832E+00  2.0605E+00  0.0000E+00  0.0000E+00  0.0000E+00  0.0000E+00  0.0000E+00  0.0000E+00  0.0000E+00  0.0000E+00
         191  1.0400E+00  2.0659E+00  0.0000E+00  0.0000E+00  0.0000E+00  0.0000E+00  0.0000E+00  0.0000E+00  0.0000E+00  0.0000E+00
         191  1.1878E+00  2.2027E+00  0.0000E+00  0.0000E+00  0.0000E+00  0.0000E+00  0.0000E+00  0.0000E+00  0.0000E+00  0.0000E+00
         191  1.0442E+00  2.2064E+00  0.0000E+00  0.0000E+00  0.0000E+00  0.0000E+00  0.0000E+00  0.0000E+00  0.0000E+00  0.0000E+00
  Element nb      COORD1      COORD2         S11         S22         S33         S12         E11         E22         E33         E12
         192  1.1911E+00  2.3065E+00  0.0000E+00  0.0000E+00  0.0000E+00  0.0000E+00  0.0000E+00  0.0000E+00  0.0000E+00  0.0000E+00
         192  1.0473E+00  2.3090E+00  0.0000E+00  0.0000E+00  0.0000E+00  0.0000E+00  0.0000E+00  0.0000E+00  0.0000E+00  0.0000E+00
         192  1.1955E+00  2.4482E+00  0.0000E+00  0.0000E+00  0.0000E+00  0.0000E+00  0.0000E+00  0.0000E+00  0.0000E+00  0.0000E+00
         192  1.0513E+00  2.4488E+00  0.0000E+00  0.0000E+00  0.0000E+00  0.0000E+00  0.0000E+00  0.0000E+00  0.0000E+00  0.0000E+00
  Element nb      COORD1      COORD2         S11         S22         S33         S12         E11         E22         E33         E12
         193  9.0284E-01  3.3602E-01  0.0000E+00  0.0000E+00  0.0000E+00  0.0000E+00  0.0000E+00  0.0000E+00  0.0000E+00  0.0000E+00
         193  7.4459E-01  3.5642E-01  0.0000E+00  0.0000E+00  0.0000E+00  0.0000E+00  0.0000E+00  0.0000E+00  0.0000E+00  0.0000E+00
         193  9.0083E-01  4.9257E-01  0.0000E+00  0.0000E+00  0.0000E+00  0.0000E+00  0.0000E+00  0.0000E+00  0.0000E+00  0.0000E+00
         193  7.5074E-01  5.1956E-01  0.0000E+00  0.0000E+00  0.0000E+00  0.0000E+00  0.0000E+00  0.0000E+00  0.0000E+00  0.0000E+00
  Element nb      COORD1      COORD2         S11         S22         S33         S12         E11         E22         E33         E12
         194  9.0062E-01  6.0351E-01  0.0000E+00  0.0000E+00  0.0000E+00  0.0000E+00  0.0000E+00  0.0000E+00  0.0000E+00  0.0000E+00
         194  7.5457E-01  6.3244E-01  0.0000E+00  0.0000E+00  0.0000E+00  0.0000E+00  0.0000E+00  0.0000E+00  0.0000E+00  0.0000E+00
         194  9.0207E-01  7.5005E-01  0.0000E+00  0.0000E+00  0.0000E+00  0.0000E+00  0.0000E+00  0.0000E+00  0.0000E+00  0.0000E+00
         194  7.5890E-01  7.7767E-01  0.0000E+00  0.0000E+00  0.0000E+00  0.0000E+00  0.0000E+00  0.0000E+00  0.0000E+00  0.0000E+00
  Element nb      COORD1      COORD2         S11         S22         S33         S12         E11         E22         E33         E12
         195  9.0363E-01  8.5578E-01  0.0000E+00  0.0000E+00  0.0000E+00  0.0000E+00  0.0000E+00  0.0000E+00  0.0000E+00  0.0000E+00
         195  7.6182E-01  8.8209E-01  0.0000E+00  0.0000E+00  0.0000E+00  0.0000E+00  0.0000E+00  0.0000E+00  0.0000E+00  0.0000E+00
         195  9.0643E-01  9.9812E-01  0.0000E+00  0.0000E+00  0.0000E+00  0.0000E+00  0.0000E+00  0.0000E+00  0.0000E+00  0.0000E+00
         195  7.6547E-01  1.0221E+00  0.0000E+00  0.0000E+00  0.0000E+00  0.0000E+00  0.0000E+00  0.0000E+00  0.0000E+00  0.0000E+00
  Element nb      COORD1      COORD2         S11         S22         S33         S12         E11         E22         E33         E12
         196  9.0871E-01  1.1017E+00  0.0000E+00  0.0000E+00  0.0000E+00  0.0000E+00  0.0000E+00  0.0000E+00  0.0000E+00  0.0000E+00
         196  7.6805E-01  1.1240E+00  0.0000E+00  0.0000E+00  0.0000E+00  0.0000E+00  0.0000E+00  0.0000E+00  0.0000E+00  0.0000E+00
         196  9.1213E-01  1.2423E+00  0.0000E+00  0.0000E+00  0.0000E+00  0.0000E+00  0.0000E+00  0.0000E+00  0.0000E+00  0.0000E+00
         196  7.7147E-01  1.2624E+00  0.0000E+00  0.0000E+00  0.0000E+00  0.0000E+00  0.0000E+00  0.0000E+00  0.0000E+00  0.0000E+00
  Element nb      COORD1      COORD2         S11         S22         S33         S12         E11         E22         E33         E12
         197  9.1477E-01  1.3450E+00  0.0000E+00  0.0000E+00  0.0000E+00  0.0000E+00  0.0000E+00  0.0000E+00  0.0000E+00  0.0000E+00
         197  7.7400E-01  1.3634E+00  0.0000E+00  0.0000E+00  0.0000E+00  0.0000E+00  0.0000E+00  0.0000E+00  0.0000E+00  0.0000E+00
         197  9.1856E-01  1.4850E+00  0.0000E+00  0.0000E+00  0.0000E+00  0.0000E+00  0.0000E+00  0.0000E+00  0.0000E+00  0.0000E+00
         197  7.7750E-01  1.5010E+00  0.0000E+00  0.0000E+00  0.0000E+00  0.0000E+00  0.0000E+00  0.0000E+00  0.0000E+00  0.0000E+00
  Element nb      COORD1      COORD2         S11         S22         S33         S12         E11         E22         E33         E12
         198  9.2140E-01  1.5873E+00  0.0000E+00  0.0000E+00  0.0000E+00  0.0000E+00  0.0000E+00  0.0000E+00  0.0000E+00  0.0000E+00
         198  7.8009E-01  1.6017E+00  0.0000E+00  0.0000E+00  0.0000E+00  0.0000E+00  0.0000E+00  0.0000E+00  0.0000E+00  0.0000E+00
         198  9.2538E-01  1.7269E+00  0.0000E+00  0.0000E+00  0.0000E+00  0.0000E+00  0.0000E+00  0.0000E+00  0.0000E+00  0.0000E+00
         198  7.8367E-01  1.7391E+00  0.0000E+00  0.0000E+00  0.0000E+00  0.0000E+00  0.0000E+00  0.0000E+00  0.0000E+00  0.0000E+00
  Element nb      COORD1      COORD2         S11         S22         S33         S12         E11         E22         E33         E12
         199  9.2832E-01  1.8291E+00  0.0000E+00  0.0000E+00  0.0000E+00  0.0000E+00  0.0000E+00  0.0000E+00  0.0000E+00  0.0000E+00
         199  7.8628E-01  1.8397E+00  0.0000E+00  0.0000E+00  0.0000E+00  0.0000E+00  0.0000E+00  0.0000E+00  0.0000E+00  0.0000E+00
         199  9.3235E-01  1.9685E+00  0.0000E+00  0.0000E+00  0.0000E+00  0.0000E+00  0.0000E+00  0.0000E+00  0.0000E+00  0.0000E+00
         199  7.8986E-01  1.9769E+00  0.0000E+00  0.0000E+00  0.0000E+00  0.0000E+00  0.0000E+00  0.0000E+00  0.0000E+00  0.0000E+00
  Element nb      COORD1      COORD2         S11         S22         S33         S12         E11         E22         E33         E12
         200  9.3528E-01  2.0704E+00  0.0000E+00  0.0000E+00  0.0000E+00  0.0000E+00  0.0000E+00  0.0000E+00  0.0000E+00  0.0000E+00
         200  7.9244E-01  2.0772E+00  0.0000E+00  0.0000E+00  0.0000E+00  0.0000E+00  0.0000E+00  0.0000E+00  0.0000E+00  0.0000E+00
         200  9.3922E-01  2.2094E+00  0.0000E+00  0.0000E+00  0.0000E+00  0.0000E+00  0.0000E+00  0.0000E+00  0.0000E+00  0.0000E+00
         200  7.9590E-01  2.2140E+00  0.0000E+00  0.0000E+00  0.0000E+00  0.0000E+00  0.0000E+00  0.0000E+00  0.0000E+00  0.0000E+00
  Element nb      COORD1      COORD2         S11         S22         S33         S12         E11         E22         E33         E12
         201  9.4204E-01  2.3110E+00  0.0000E+00  0.0000E+00  0.0000E+00  0.0000E+00  0.0000E+00  0.0000E+00  0.0000E+00  0.0000E+00
         201  7.9837E-01  2.3139E+00  0.0000E+00  0.0000E+00  0.0000E+00  0.0000E+00  0.0000E+00  0.0000E+00  0.0000E+00  0.0000E+00
         201  9.4579E-01  2.4494E+00  0.0000E+00  0.0000E+00  0.0000E+00  0.0000E+00  0.0000E+00  0.0000E+00  0.0000E+00  0.0000E+00
         201  8.0163E-01  2.4501E+00  0.0000E+00  0.0000E+00  0.0000E+00  0.0000E+00  0.0000E+00  0.0000E+00  0.0000E+00  0.0000E+00
  Element nb      COORD1      COORD2         S11         S22         S33         S12         E11         E22         E33         E12
           1  6.9613E-01  2.4509E+00  0.0000E+00  0.0000E+00  0.0000E+00  0.0000E+00  0.0000E+00  0.0000E+00  0.0000E+00  0.0000E+00
           1  6.9331E-01  2.3167E+00  0.0000E+00  0.0000E+00  0.0000E+00  0.0000E+00  0.0000E+00  0.0000E+00  0.0000E+00  0.0000E+00
           1  5.5206E-01  2.4521E+00  0.0000E+00  0.0000E+00  0.0000E+00  0.0000E+00  0.0000E+00  0.0000E+00  0.0000E+00  0.0000E+00
           1  5.4996E-01  2.3214E+00  0.0000E+00  0.0000E+00  0.0000E+00  0.0000E+00  0.0000E+00  0.0000E+00  0.0000E+00  0.0000E+00
  Element nb      COORD1      COORD2         S11         S22         S33         S12         E11         E22         E33         E12
           2  4.4658E-01  2.4531E+00  0.0000E+00  0.0000E+00  0.0000E+00  0.0000E+00  0.0000E+00  0.0000E+00  0.0000E+00  0.0000E+00
           2  4.4496E-01  2.3251E+00  0.0000E+00  0.0000E+00  0.0000E+00  0.0000E+00  0.0000E+00  0.0000E+00  0.0000E+00  0.0000E+00
           2  3.0246E-01  2.4546E+00  0.0000E+00  0.0000E+00  0.0000E+00  0.0000E+00  0.0000E+00  0.0000E+00  0.0000E+00  0.0000E+00
           2  3.0144E-01  2.3306E+00  0.0000E+00  0.0000E+00  0.0000E+00  0.0000E+00  0.0000E+00  0.0000E+00  0.0000E+00  0.0000E+00
  Element nb      COORD1      COORD2         S11         S22         S33         S12         E11         E22         E33         E12
           3  1.9694E-01  2.4557E+00  0.0000E+00  0.0000E+00  0.0000E+00  0.0000E+00  0.0000E+00  0.0000E+00  0.0000E+00  0.0000E+00
           3  1.9631E-01  2.3347E+00  0.0000E+00  0.0000E+00  0.0000E+00  0.0000E+00  0.0000E+00  0.0000E+00  0.0000E+00  0.0000E+00
           3  5.2769E-02  2.4572E+00  0.0000E+00  0.0000E+00  0.0000E+00  0.0000E+00  0.0000E+00  0.0000E+00  0.0000E+00  0.0000E+00
           3  5.2600E-02  2.3402E+00  0.0000E+00  0.0000E+00  0.0000E+00  0.0000E+00  0.0000E+00  0.0000E+00  0.0000E+00  0.0000E+00
  Element nb      COORD1      COORD2         S11         S22         S33         S12         E11         E22         E33         E12
           4  6.9117E-01  2.2183E+00  0.0000E+00  0.0000E+00  0.0000E+00  0.0000E+00  0.0000E+00  0.0000E+00  0.0000E+00  0.0000E+00
           4  6.8817E-01  2.0837E+00  0.0000E+00  0.0000E+00  0.0000E+00  0.0000E+00  0.0000E+00  0.0000E+00  0.0000E+00  0.0000E+00
           4  5.4837E-01  2.2256E+00  0.0000E+00  0.0000E+00  0.0000E+00  0.0000E+00  0.0000E+00  0.0000E+00  0.0000E+00  0.0000E+00
           4  5.4612E-01  2.0946E+00  0.0000E+00  0.0000E+00  0.0000E+00  0.0000E+00  0.0000E+00  0.0000E+00  0.0000E+00  0.0000E+00
  Element nb      COORD1      COORD2         S11         S22         S33         S12         E11         E22         E33         E12
           5  4.4373E-01  2.2313E+00  0.0000E+00  0.0000E+00  0.0000E+00  0.0000E+00  0.0000E+00  0.0000E+00  0.0000E+00  0.0000E+00
           5  4.4199E-01  2.1032E+00  0.0000E+00  0.0000E+00  0.0000E+00  0.0000E+00  0.0000E+00  0.0000E+00  0.0000E+00  0.0000E+00
           5  3.0065E-01  2.2398E+00  0.0000E+00  0.0000E+00  0.0000E+00  0.0000E+00  0.0000E+00  0.0000E+00  0.0000E+00  0.0000E+00
           5  2.9953E-01  2.1157E+00  0.0000E+00  0.0000E+00  0.0000E+00  0.0000E+00  0.0000E+00  0.0000E+00  0.0000E+00  0.0000E+00
  Element nb      COORD1      COORD2         S11         S22         S33         S12         E11         E22         E33         E12
           6  1.9582E-01  2.2460E+00  0.0000E+00  0.0000E+00  0.0000E+00  0.0000E+00  0.0000E+00  0.0000E+00  0.0000E+00  0.0000E+00
           6  1.9511E-01  2.1249E+00  0.0000E+00  0.0000E+00  0.0000E+00  0.0000E+00  0.0000E+00  0.0000E+00  0.0000E+00  0.0000E+00
           6  5.2469E-02  2.2546E+00  0.0000E+00  0.0000E+00  0.0000E+00  0.0000E+00  0.0000E+00  0.0000E+00  0.0000E+00  0.0000E+00
           6  5.2280E-02  2.1376E+00  0.0000E+00  0.0000E+00  0.0000E+00  0.0000E+00  0.0000E+00  0.0000E+00  0.0000E+00  0.0000E+00
  Element nb      COORD1      COORD2         S11         S22         S33         S12         E11         E22         E33         E12
           7  6.8592E-01  1.9850E+00  0.0000E+00  0.0000E+00  0.0000E+00  0.0000E+00  0.0000E+00  0.0000E+00  0.0000E+00  0.0000E+00
           7  6.8280E-01  1.8499E+00  0.0000E+00  0.0000E+00  0.0000E+00  0.0000E+00  0.0000E+00  0.0000E+00  0.0000E+00  0.0000E+00
           7  5.4444E-01  1.9987E+00  0.0000E+00  0.0000E+00  0.0000E+00  0.0000E+00  0.0000E+00  0.0000E+00  0.0000E+00  0.0000E+00
           7  5.4210E-01  1.8675E+00  0.0000E+00  0.0000E+00  0.0000E+00  0.0000E+00  0.0000E+00  0.0000E+00  0.0000E+00  0.0000E+00
  Element nb      COORD1      COORD2         S11         S22         S33         S12         E11         E22         E33         E12
           8  4.4068E-01  2.0094E+00  0.0000E+00  0.0000E+00  0.0000E+00  0.0000E+00  0.0000E+00  0.0000E+00  0.0000E+00  0.0000E+00
           8  4.3886E-01  1.8811E+00  0.0000E+00  0.0000E+00  0.0000E+00  0.0000E+00  0.0000E+00  0.0000E+00  0.0000E+00  0.0000E+00
           8  2.9869E-01  2.0249E+00  0.0000E+00  0.0000E+00  0.0000E+00  0.0000E+00  0.0000E+00  0.0000E+00  0.0000E+00  0.0000E+00
           8  2.9751E-01  1.9007E+00  0.0000E+00  0.0000E+00  0.0000E+00  0.0000E+00  0.0000E+00  0.0000E+00  0.0000E+00  0.0000E+00
  Element nb      COORD1      COORD2         S11         S22         S33         S12         E11         E22         E33         E12
           9  1.9458E-01  2.0363E+00  0.0000E+00  0.0000E+00  0.0000E+00  0.0000E+00  0.0000E+00  0.0000E+00  0.0000E+00  0.0000E+00
           9  1.9383E-01  1.9152E+00  0.0000E+00  0.0000E+00  0.0000E+00  0.0000E+00  0.0000E+00  0.0000E+00  0.0000E+00  0.0000E+00
           9  5.2137E-02  2.0520E+00  0.0000E+00  0.0000E+00  0.0000E+00  0.0000E+00  0.0000E+00  0.0000E+00  0.0000E+00  0.0000E+00
           9  5.1937E-02  1.9350E+00  0.0000E+00  0.0000E+00  0.0000E+00  0.0000E+00  0.0000E+00  0.0000E+00  0.0000E+00  0.0000E+00
  Element nb      COORD1      COORD2         S11         S22         S33         S12         E11         E22         E33         E12
          10  6.8050E-01  1.7511E+00  0.0000E+00  0.0000E+00  0.0000E+00  0.0000E+00  0.0000E+00  0.0000E+00  0.0000E+00  0.0000E+00
          10  6.7736E-01  1.6159E+00  0.0000E+00  0.0000E+00  0.0000E+00  0.0000E+00  0.0000E+00  0.0000E+00  0.0000E+00  0.0000E+00
          10  5.4038E-01  1.7714E+00  0.0000E+00  0.0000E+00  0.0000E+00  0.0000E+00  0.0000E+00  0.0000E+00  0.0000E+00  0.0000E+00
          10  5.3800E-01  1.6401E+00  0.0000E+00  0.0000E+00  0.0000E+00  0.0000E+00  0.0000E+00  0.0000E+00  0.0000E+00  0.0000E+00
  Element nb      COORD1      COORD2         S11         S22         S33         S12         E11         E22         E33         E12
          11  4.3752E-01  1.7872E+00  0.0000E+00  0.0000E+00  0.0000E+00  0.0000E+00  0.0000E+00  0.0000E+00  0.0000E+00  0.0000E+00
          11  4.3566E-01  1.6588E+00  0.0000E+00  0.0000E+00  0.0000E+00  0.0000E+00  0.0000E+00  0.0000E+00  0.0000E+00  0.0000E+00
          11  2.9663E-01  1.8098E+00  0.0000E+00  0.0000E+00  0.0000E+00  0.0000E+00  0.0000E+00  0.0000E+00  0.0000E+00  0.0000E+00
          11  2.9542E-01  1.6856E+00  0.0000E+00  0.0000E+00  0.0000E+00  0.0000E+00  0.0000E+00  0.0000E+00  0.0000E+00  0.0000E+00
  Element nb      COORD1      COORD2         S11         S22         S33         S12         E11         E22         E33         E12
          12  1.9328E-01  1.8265E+00  0.0000E+00  0.0000E+00  0.0000E+00  0.0000E+00  0.0000E+00  0.0000E+00  0.0000E+00  0.0000E+00
          12  1.9251E-01  1.7053E+00  0.0000E+00  0.0000E+00  0.0000E+00  0.0000E+00  0.0000E+00  0.0000E+00  0.0000E+00  0.0000E+00
          12  5.1788E-02  1.8494E+00  0.0000E+00  0.0000E+00  0.0000E+00  0.0000E+00  0.0000E+00  0.0000E+00  0.0000E+00  0.0000E+00
          12  5.1583E-02  1.7324E+00  0.0000E+00  0.0000E+00  0.0000E+00  0.0000E+00  0.0000E+00  0.0000E+00  0.0000E+00  0.0000E+00
  Element nb      COORD1      COORD2         S11         S22         S33         S12         E11         E22         E33         E12
          13  6.7507E-01  1.5168E+00  0.0000E+00  0.0000E+00  0.0000E+00  0.0000E+00  0.0000E+00  0.0000E+00  0.0000E+00  0.0000E+00
          13  6.7195E-01  1.3814E+00  0.0000E+00  0.0000E+00  0.0000E+00  0.0000E+00  0.0000E+00  0.0000E+00  0.0000E+00  0.0000E+00
          13  5.3627E-01  1.5439E+00  0.0000E+00  0.0000E+00  0.0000E+00  0.0000E+00  0.0000E+00  0.0000E+00  0.0000E+00  0.0000E+00
          13  5.3390E-01  1.4124E+00  0.0000E+00  0.0000E+00  0.0000E+00  0.0000E+00  0.0000E+00  0.0000E+00  0.0000E+00  0.0000E+00
  Element nb      COORD1      COORD2         S11         S22         S33         S12         E11         E22         E33         E12
          14  4.3431E-01  1.5648E+00  0.0000E+00  0.0000E+00  0.0000E+00  0.0000E+00  0.0000E+00  0.0000E+00  0.0000E+00  0.0000E+00
          14  4.3245E-01  1.4363E+00  0.0000E+00  0.0000E+00  0.0000E+00  0.0000E+00  0.0000E+00  0.0000E+00  0.0000E+00  0.0000E+00
          14  2.9454E-01  1.5946E+00  0.0000E+00  0.0000E+00  0.0000E+00  0.0000E+00  0.0000E+00  0.0000E+00  0.0000E+00  0.0000E+00
          14  2.9332E-01  1.4703E+00  0.0000E+00  0.0000E+00  0.0000E+00  0.0000E+00  0.0000E+00  0.0000E+00  0.0000E+00  0.0000E+00
  Element nb      COORD1      COORD2         S11         S22         S33         S12         E11         E22         E33         E12
          15  1.9195E-01  1.6166E+00  0.0000E+00  0.0000E+00  0.0000E+00  0.0000E+00  0.0000E+00  0.0000E+00  0.0000E+00  0.0000E+00
          15  1.9117E-01  1.4953E+00  0.0000E+00  0.0000E+00  0.0000E+00  0.0000E+00  0.0000E+00  0.0000E+00  0.0000E+00  0.0000E+00
          15  5.1432E-02  1.6467E+00  0.0000E+00  0.0000E+00  0.0000E+00  0.0000E+00  0.0000E+00  0.0000E+00  0.0000E+00  0.0000E+00
          15  5.1225E-02  1.5297E+00  0.0000E+00  0.0000E+00  0.0000E+00  0.0000E+00  0.0000E+00  0.0000E+00  0.0000E+00  0.0000E+00
  Element nb      COORD1      COORD2         S11         S22         S33         S12         E11         E22         E33         E12
          16  6.6963E-01  1.2821E+00  0.0000E+00  0.0000E+00  0.0000E+00  0.0000E+00  0.0000E+00  0.0000E+00  0.0000E+00  0.0000E+00
          16  6.6640E-01  1.1462E+00  0.0000E+00  0.0000E+00  0.0000E+00  0.0000E+00  0.0000E+00  0.0000E+00  0.0000E+00  0.0000E+00
          16  5.3205E-01  1.3161E+00  0.0000E+00  0.0000E+00  0.0000E+00  0.0000E+00  0.0000E+00  0.0000E+00  0.0000E+00  0.0000E+00
          16  5.2934E-01  1.1844E+00  0.0000E+00  0.0000E+00  0.0000E+00  0.0000E+00  0.0000E+00  0.0000E+00  0.0000E+00  0.0000E+00
  Element nb      COORD1      COORD2         S11         S22         S33         S12         E11         E22         E33         E12
          17  4.3093E-01  1.3422E+00  0.0000E+00  0.0000E+00  0.0000E+00  0.0000E+00  0.0000E+00  0.0000E+00  0.0000E+00  0.0000E+00
          17  4.2863E-01  1.2136E+00  0.0000E+00  0.0000E+00  0.0000E+00  0.0000E+00  0.0000E+00  0.0000E+00  0.0000E+00  0.0000E+00
          17  2.9225E-01  1.3793E+00  0.0000E+00  0.0000E+00  0.0000E+00  0.0000E+00  0.0000E+00  0.0000E+00  0.0000E+00  0.0000E+00
          17  2.9052E-01  1.2551E+00  0.0000E+00  0.0000E+00  0.0000E+00  0.0000E+00  0.0000E+00  0.0000E+00  0.0000E+00  0.0000E+00
  Element nb      COORD1      COORD2         S11         S22         S33         S12         E11         E22         E33         E12
          18  1.9045E-01  1.4066E+00  0.0000E+00  0.0000E+00  0.0000E+00  0.0000E+00  0.0000E+00  0.0000E+00  0.0000E+00  0.0000E+00
          18  1.8926E-01  1.2855E+00  0.0000E+00  0.0000E+00  0.0000E+00  0.0000E+00  0.0000E+00  0.0000E+00  0.0000E+00  0.0000E+00
          18  5.1032E-02  1.4440E+00  0.0000E+00  0.0000E+00  0.0000E+00  0.0000E+00  0.0000E+00  0.0000E+00  0.0000E+00  0.0000E+00
          18  5.0711E-02  1.3271E+00  0.0000E+00  0.0000E+00  0.0000E+00  0.0000E+00  0.0000E+00  0.0000E+00  0.0000E+00  0.0000E+00
  Element nb      COORD1      COORD2         S11         S22         S33         S12         E11         E22         E33         E12
          19  6.6376E-01  1.0462E+00  0.0000E+00  0.0000E+00  0.0000E+00  0.0000E+00  0.0000E+00  0.0000E+00  0.0000E+00  0.0000E+00
          19  6.5976E-01  9.0903E-01  0.0000E+00  0.0000E+00  0.0000E+00  0.0000E+00  0.0000E+00  0.0000E+00  0.0000E+00  0.0000E+00
          19  5.2685E-01  1.0880E+00  0.0000E+00  0.0000E+00  0.0000E+00  0.0000E+00  0.0000E+00  0.0000E+00  0.0000E+00  0.0000E+00
          19  5.2272E-01  9.5633E-01  0.0000E+00  0.0000E+00  0.0000E+00  0.0000E+00  0.0000E+00  0.0000E+00  0.0000E+00  0.0000E+00
  Element nb      COORD1      COORD2         S11         S22         S33         S12         E11         E22         E33         E12
          20  4.2637E-01  1.1197E+00  0.0000E+00  0.0000E+00  0.0000E+00  0.0000E+00  0.0000E+00  0.0000E+00  0.0000E+00  0.0000E+00
          20  4.2249E-01  9.9184E-01  0.0000E+00  0.0000E+00  0.0000E+00  0.0000E+00  0.0000E+00  0.0000E+00  0.0000E+00  0.0000E+00
          20  2.8876E-01  1.1646E+00  0.0000E+00  0.0000E+00  0.0000E+00  0.0000E+00  0.0000E+00  0.0000E+00  0.0000E+00  0.0000E+00
          20  2.8569E-01  1.0416E+00  0.0000E+00  0.0000E+00  0.0000E+00  0.0000E+00  0.0000E+00  0.0000E+00  0.0000E+00  0.0000E+00
  Element nb      COORD1      COORD2         S11         S22         S33         S12         E11         E22         E33         E12
          21  1.8802E-01  1.1973E+00  0.0000E+00  0.0000E+00  0.0000E+00  0.0000E+00  0.0000E+00  0.0000E+00  0.0000E+00  0.0000E+00
          21  1.8582E-01  1.0772E+00  0.0000E+00  0.0000E+00  0.0000E+00  0.0000E+00  0.0000E+00  0.0000E+00  0.0000E+00  0.0000E+00
          21  5.0379E-02  1.2415E+00  0.0000E+00  0.0000E+00  0.0000E+00  0.0000E+00  0.0000E+00  0.0000E+00  0.0000E+00  0.0000E+00
          21  4.9791E-02  1.1248E+00  0.0000E+00  0.0000E+00  0.0000E+00  0.0000E+00  0.0000E+00  0.0000E+00  0.0000E+00  0.0000E+00
  Element nb      COORD1      COORD2         S11         S22         S33         S12         E11         E22         E33         E12
          22  6.5623E-01  8.0721E-01  0.0000E+00  0.0000E+00  0.0000E+00  0.0000E+00  0.0000E+00  0.0000E+00  0.0000E+00  0.0000E+00
          22  6.5058E-01  6.6620E-01  0.0000E+00  0.0000E+00  0.0000E+00  0.0000E+00  0.0000E+00  0.0000E+00  0.0000E+00  0.0000E+00
          22  5.1888E-01  8.6028E-01  0.0000E+00  0.0000E+00  0.0000E+00  0.0000E+00  0.0000E+00  0.0000E+00  0.0000E+00  0.0000E+00
          22  5.1252E-01  7.2952E-01  0.0000E+00  0.0000E+00  0.0000E+00  0.0000E+00  0.0000E+00  0.0000E+00  0.0000E+00  0.0000E+00
  Element nb      COORD1      COORD2         S11         S22         S33         S12         E11         E22         E33         E12
          23  4.1882E-01  8.9929E-01  0.0000E+00  0.0000E+00  0.0000E+00  0.0000E+00  0.0000E+00  0.0000E+00  0.0000E+00  0.0000E+00
          23  4.1267E-01  7.7431E-01  0.0000E+00  0.0000E+00  0.0000E+00  0.0000E+00  0.0000E+00  0.0000E+00  0.0000E+00  0.0000E+00
          23  2.8279E-01  9.5279E-01  0.0000E+00  0.0000E+00  0.0000E+00  0.0000E+00  0.0000E+00  0.0000E+00  0.0000E+00  0.0000E+00
          23  2.7795E-01  8.3336E-01  0.0000E+00  0.0000E+00  0.0000E+00  0.0000E+00  0.0000E+00  0.0000E+00  0.0000E+00  0.0000E+00
  Element nb      COORD1      COORD2         S11         S22         S33         S12         E11         E22         E33         E12
          24  1.8376E-01  9.9042E-01  0.0000E+00  0.0000E+00  0.0000E+00  0.0000E+00  0.0000E+00  0.0000E+00  0.0000E+00  0.0000E+00
          24  1.8032E-01  8.7342E-01  0.0000E+00  0.0000E+00  0.0000E+00  0.0000E+00  0.0000E+00  0.0000E+00  0.0000E+00  0.0000E+00
          24  4.9239E-02  1.0397E+00  0.0000E+00  0.0000E+00  0.0000E+00  0.0000E+00  0.0000E+00  0.0000E+00  0.0000E+00  0.0000E+00
          24  4.8317E-02  9.2382E-01  0.0000E+00  0.0000E+00  0.0000E+00  0.0000E+00  0.0000E+00  0.0000E+00  0.0000E+00  0.0000E+00
  Element nb      COORD1      COORD2         S11         S22         S33         S12         E11         E22         E33         E12
          25  6.4501E-01  5.5754E-01  0.0000E+00  0.0000E+00  0.0000E+00  0.0000E+00  0.0000E+00  0.0000E+00  0.0000E+00  0.0000E+00
          25  6.3543E-01  4.0167E-01  0.0000E+00  0.0000E+00  0.0000E+00  0.0000E+00  0.0000E+00  0.0000E+00  0.0000E+00  0.0000E+00
          25  5.0624E-01  6.3430E-01  0.0000E+00  0.0000E+00  0.0000E+00  0.0000E+00  0.0000E+00  0.0000E+00  0.0000E+00  0.0000E+00
          25  4.9545E-01  5.0489E-01  0.0000E+00  0.0000E+00  0.0000E+00  0.0000E+00  0.0000E+00  0.0000E+00  0.0000E+00  0.0000E+00
  Element nb      COORD1      COORD2         S11         S22         S33         S12         E11         E22         E33         E12
          26  4.0660E-01  6.8572E-01  0.0000E+00  0.0000E+00  0.0000E+00  0.0000E+00  0.0000E+00  0.0000E+00  0.0000E+00  0.0000E+00
          26  3.9615E-01  5.6866E-01  0.0000E+00  0.0000E+00  0.0000E+00  0.0000E+00  0.0000E+00  0.0000E+00  0.0000E+00  0.0000E+00
          26  2.7314E-01  7.4945E-01  0.0000E+00  0.0000E+00  0.0000E+00  0.0000E+00  0.0000E+00  0.0000E+00  0.0000E+00  0.0000E+00
          26  2.6484E-01  6.3965E-01  0.0000E+00  0.0000E+00  0.0000E+00  0.0000E+00  0.0000E+00  0.0000E+00  0.0000E+00  0.0000E+00
  Element nb      COORD1      COORD2         S11         S22         S33         S12         E11         E22         E33         E12
          27  1.7689E-01  7.9073E-01  0.0000E+00  0.0000E+00  0.0000E+00  0.0000E+00  0.0000E+00  0.0000E+00  0.0000E+00  0.0000E+00
          27  1.7096E-01  6.8183E-01  0.0000E+00  0.0000E+00  0.0000E+00  0.0000E+00  0.0000E+00  0.0000E+00  0.0000E+00  0.0000E+00
          27  4.7398E-02  8.3978E-01  0.0000E+00  0.0000E+00  0.0000E+00  0.0000E+00  0.0000E+00  0.0000E+00  0.0000E+00  0.0000E+00
          27  4.5809E-02  7.2607E-01  0.0000E+00  0.0000E+00  0.0000E+00  0.0000E+00  0.0000E+00  0.0000E+00  0.0000E+00  0.0000E+00
  Element nb      COORD1      COORD2         S11         S22         S33         S12         E11         E22         E33         E12
          28  4.4215E-02  6.4377E-01  0.0000E+00  0.0000E+00  0.0000E+00  0.0000E+00  0.0000E+00  0.0000E+00  0.0000E+00  0.0000E+00
          28  1.6501E-01  6.0563E-01  0.0000E+00  0.0000E+00  0.0000E+00  0.0000E+00  0.0000E+00  0.0000E+00  0.0000E+00  0.0000E+00
          28  4.1448E-02  5.3264E-01  0.0000E+00  0.0000E+00  0.0000E+00  0.0000E+00  0.0000E+00  0.0000E+00  0.0000E+00  0.0000E+00
          28  1.5469E-01  5.0633E-01  0.0000E+00  0.0000E+00  0.0000E+00  0.0000E+00  0.0000E+00  0.0000E+00  0.0000E+00  0.0000E+00
  Element nb      COORD1      COORD2         S11         S22         S33         S12         E11         E22         E33         E12
          29  2.5415E-01  5.6556E-01  0.0000E+00  0.0000E+00  0.0000E+00  0.0000E+00  0.0000E+00  0.0000E+00  0.0000E+00  0.0000E+00
          29  3.7689E-01  4.9425E-01  0.0000E+00  0.0000E+00  0.0000E+00  0.0000E+00  0.0000E+00  0.0000E+00  0.0000E+00  0.0000E+00
          29  2.3327E-01  4.7294E-01  0.0000E+00  0.0000E+00  0.0000E+00  0.0000E+00  0.0000E+00  0.0000E+00  0.0000E+00  0.0000E+00
          29  3.3471E-01  4.0802E-01  0.0000E+00  0.0000E+00  0.0000E+00  0.0000E+00  0.0000E+00  0.0000E+00  0.0000E+00  0.0000E+00
  Element nb      COORD1      COORD2         S11         S22         S33         S12         E11         E22         E33         E12
          30  4.6719E-01  4.2831E-01  0.0000E+00  0.0000E+00  0.0000E+00  0.0000E+00  0.0000E+00  0.0000E+00  0.0000E+00  0.0000E+00
          30  5.9117E-01  3.1947E-01  0.0000E+00  0.0000E+00  0.0000E+00  0.0000E+00  0.0000E+00  0.0000E+00  0.0000E+00  0.0000E+00
          30  4.0077E-01  3.4849E-01  0.0000E+00  0.0000E+00  0.0000E+00  0.0000E+00  0.0000E+00  0.0000E+00  0.0000E+00  0.0000E+00
          30  4.7980E-01  2.5077E-01  0.0000E+00  0.0000E+00  0.0000E+00  0.0000E+00  0.0000E+00  0.0000E+00  0.0000E+00  0.0000E+00
  Element nb      COORD1      COORD2         S11         S22         S33         S12         E11         E22         E33         E12
          31  5.1805E-01  1.6956E-01  0.0000E+00  0.0000E+00  0.0000E+00  0.0000E+00  0.0000E+00  0.0000E+00  0.0000E+00  0.0000E+00
          31  6.4936E-01  2.2054E-01  0.0000E+00  0.0000E+00  0.0000E+00  0.0000E+00  0.0000E+00  0.0000E+00  0.0000E+00  0.0000E+00
          31  5.4351E-01  4.5435E-02  0.0000E+00  0.0000E+00  0.0000E+00  0.0000E+00  0.0000E+00  0.0000E+00  0.0000E+00  0.0000E+00
          31  6.8436E-01  5.9093E-02  0.0000E+00  0.0000E+00  0.0000E+00  0.0000E+00  0.0000E+00  0.0000E+00  0.0000E+00  0.0000E+00
  Element nb      COORD1      COORD2         S11         S22         S33         S12         E11         E22         E33         E12
          32  7.9005E-01  6.2701E-02  0.0000E+00  0.0000E+00  0.0000E+00  0.0000E+00  0.0000E+00  0.0000E+00  0.0000E+00  0.0000E+00
          32  7.5513E-01  2.3400E-01  0.0000E+00  0.0000E+00  0.0000E+00  0.0000E+00  0.0000E+00  0.0000E+00  0.0000E+00  0.0000E+00
          32  9.3796E-01  5.8900E-02  0.0000E+00  0.0000E+00  0.0000E+00  0.0000E+00  0.0000E+00  0.0000E+00  0.0000E+00  0.0000E+00
          32  9.1279E-01  2.1982E-01  0.0000E+00  0.0000E+00  0.0000E+00  0.0000E+00  0.0000E+00  0.0000E+00  0.0000E+00  0.0000E+00
  Element nb      COORD1      COORD2         S11         S22         S33         S12         E11         E22         E33         E12
          33  1.0452E+00  5.6779E-02  0.0000E+00  0.0000E+00  0.0000E+00  0.0000E+00  0.0000E+00  0.0000E+00  0.0000E+00  0.0000E+00
          33  1.0244E+00  2.1190E-01  0.0000E+00  0.0000E+00  0.0000E+00  0.0000E+00  0.0000E+00  0.0000E+00  0.0000E+00  0.0000E+00
          33  1.1903E+00  5.4785E-02  0.0000E+00  0.0000E+00  0.0000E+00  0.0000E+00  0.0000E+00  0.0000E+00  0.0000E+00  0.0000E+00
          33  1.1717E+00  2.0446E-01  0.0000E+00  0.0000E+00  0.0000E+00  0.0000E+00  0.0000E+00  0.0000E+00  0.0000E+00  0.0000E+00
  Element nb      COORD1      COORD2         S11         S22         S33         S12         E11         E22         E33         E12
          34  1.2964E+00  5.3859E-02  0.0000E+00  0.0000E+00  0.0000E+00  0.0000E+00  0.0000E+00  0.0000E+00  0.0000E+00  0.0000E+00
          34  1.2787E+00  2.0101E-01  0.0000E+00  0.0000E+00  0.0000E+00  0.0000E+00  0.0000E+00  0.0000E+00  0.0000E+00  0.0000E+00
          34  1.4409E+00  5.3324E-02  0.0000E+00  0.0000E+00  0.0000E+00  0.0000E+00  0.0000E+00  0.0000E+00  0.0000E+00  0.0000E+00
          34  1.4240E+00  1.9901E-01  0.0000E+00  0.0000E+00  0.0000E+00  0.0000E+00  0.0000E+00  0.0000E+00  0.0000E+00  0.0000E+00
  Element nb      COORD1      COORD2         S11         S22         S33         S12         E11         E22         E33         E12
          35  1.5468E+00  5.3112E-02  0.0000E+00  0.0000E+00  0.0000E+00  0.0000E+00  0.0000E+00  0.0000E+00  0.0000E+00  0.0000E+00
          35  1.5302E+00  1.9822E-01  0.0000E+00  0.0000E+00  0.0000E+00  0.0000E+00  0.0000E+00  0.0000E+00  0.0000E+00  0.0000E+00
          35  1.6913E+00  5.3068E-02  0.0000E+00  0.0000E+00  0.0000E+00  0.0000E+00  0.0000E+00  0.0000E+00  0.0000E+00  0.0000E+00
          35  1.6754E+00  1.9805E-01  0.0000E+00  0.0000E+00  0.0000E+00  0.0000E+00  0.0000E+00  0.0000E+00  0.0000E+00  0.0000E+00
  Element nb      COORD1      COORD2         S11         S22         S33         S12         E11         E22         E33         E12
          36  1.7972E+00  5.3048E-02  0.0000E+00  0.0000E+00  0.0000E+00  0.0000E+00  0.0000E+00  0.0000E+00  0.0000E+00  0.0000E+00
          36  1.7817E+00  1.9798E-01  0.0000E+00  0.0000E+00  0.0000E+00  0.0000E+00  0.0000E+00  0.0000E+00  0.0000E+00  0.0000E+00
          36  1.9417E+00  5.3038E-02  0.0000E+00  0.0000E+00  0.0000E+00  0.0000E+00  0.0000E+00  0.0000E+00  0.0000E+00  0.0000E+00
          36  1.9269E+00  1.9794E-01  0.0000E+00  0.0000E+00  0.0000E+00  0.0000E+00  0.0000E+00  0.0000E+00  0.0000E+00  0.0000E+00
  Element nb      COORD1      COORD2         S11         S22         S33         S12         E11         E22         E33         E12
          37  2.0476E+00  5.3031E-02  0.0000E+00  0.0000E+00  0.0000E+00  0.0000E+00  0.0000E+00  0.0000E+00  0.0000E+00  0.0000E+00
          37  2.0333E+00  1.9792E-01  0.0000E+00  0.0000E+00  0.0000E+00  0.0000E+00  0.0000E+00  0.0000E+00  0.0000E+00  0.0000E+00
          37  2.1922E+00  5.3022E-02  0.0000E+00  0.0000E+00  0.0000E+00  0.0000E+00  0.0000E+00  0.0000E+00  0.0000E+00  0.0000E+00
          37  2.1785E+00  1.9788E-01  0.0000E+00  0.0000E+00  0.0000E+00  0.0000E+00  0.0000E+00  0.0000E+00  0.0000E+00  0.0000E+00
  Element nb      COORD1      COORD2         S11         S22         S33         S12         E11         E22         E33         E12
          38  2.2980E+00  5.3015E-02  0.0000E+00  0.0000E+00  0.0000E+00  0.0000E+00  0.0000E+00  0.0000E+00  0.0000E+00  0.0000E+00
          38  2.2849E+00  1.9785E-01  0.0000E+00  0.0000E+00  0.0000E+00  0.0000E+00  0.0000E+00  0.0000E+00  0.0000E+00  0.0000E+00
          38  2.4426E+00  5.3005E-02  0.0000E+00  0.0000E+00  0.0000E+00  0.0000E+00  0.0000E+00  0.0000E+00  0.0000E+00  0.0000E+00
          38  2.4302E+00  1.9782E-01  0.0000E+00  0.0000E+00  0.0000E+00  0.0000E+00  0.0000E+00  0.0000E+00  0.0000E+00  0.0000E+00
  Element nb      COORD1      COORD2         S11         S22         S33         S12         E11         E22         E33         E12
          39  2.5485E+00  5.2998E-02  0.0000E+00  0.0000E+00  0.0000E+00  0.0000E+00  0.0000E+00  0.0000E+00  0.0000E+00  0.0000E+00
          39  2.5365E+00  1.9779E-01  0.0000E+00  0.0000E+00  0.0000E+00  0.0000E+00  0.0000E+00  0.0000E+00  0.0000E+00  0.0000E+00
          39  2.6930E+00  5.2989E-02  0.0000E+00  0.0000E+00  0.0000E+00  0.0000E+00  0.0000E+00  0.0000E+00  0.0000E+00  0.0000E+00
          39  2.6818E+00  1.9776E-01  0.0000E+00  0.0000E+00  0.0000E+00  0.0000E+00  0.0000E+00  0.0000E+00  0.0000E+00  0.0000E+00
  Element nb      COORD1      COORD2         S11         S22         S33         S12         E11         E22         E33         E12
          40  2.7989E+00  5.2982E-02  0.0000E+00  0.0000E+00  0.0000E+00  0.0000E+00  0.0000E+00  0.0000E+00  0.0000E+00  0.0000E+00
          40  2.7881E+00  1.9773E-01  0.0000E+00  0.0000E+00  0.0000E+00  0.0000E+00  0.0000E+00  0.0000E+00  0.0000E+00  0.0000E+00
          40  2.9435E+00  5.2972E-02  0.0000E+00  0.0000E+00  0.0000E+00  0.0000E+00  0.0000E+00  0.0000E+00  0.0000E+00  0.0000E+00
          40  2.9334E+00  1.9769E-01  0.0000E+00  0.0000E+00  0.0000E+00  0.0000E+00  0.0000E+00  0.0000E+00  0.0000E+00  0.0000E+00
  Element nb      COORD1      COORD2         S11         S22         S33         S12         E11         E22         E33         E12
          41  3.0493E+00  5.2965E-02  0.0000E+00  0.0000E+00  0.0000E+00  0.0000E+00  0.0000E+00  0.0000E+00  0.0000E+00  0.0000E+00
          41  3.0397E+00  1.9767E-01  0.0000E+00  0.0000E+00  0.0000E+00  0.0000E+00  0.0000E+00  0.0000E+00  0.0000E+00  0.0000E+00
          41  3.1939E+00  5.2956E-02  0.0000E+00  0.0000E+00  0.0000E+00  0.0000E+00  0.0000E+00  0.0000E+00  0.0000E+00  0.0000E+00
          41  3.1850E+00  1.9763E-01  0.0000E+00  0.0000E+00  0.0000E+00  0.0000E+00  0.0000E+00  0.0000E+00  0.0000E+00  0.0000E+00
  Element nb      COORD1      COORD2         S11         S22         S33         S12         E11         E22         E33         E12
          42  3.2998E+00  5.2949E-02  0.0000E+00  0.0000E+00  0.0000E+00  0.0000E+00  0.0000E+00  0.0000E+00  0.0000E+00  0.0000E+00
          42  3.2914E+00  1.9761E-01  0.0000E+00  0.0000E+00  0.0000E+00  0.0000E+00  0.0000E+00  0.0000E+00  0.0000E+00  0.0000E+00
          42  3.4443E+00  5.2939E-02  0.0000E+00  0.0000E+00  0.0000E+00  0.0000E+00  0.0000E+00  0.0000E+00  0.0000E+00  0.0000E+00
          42  3.4366E+00  1.9757E-01  0.0000E+00  0.0000E+00  0.0000E+00  0.0000E+00  0.0000E+00  0.0000E+00  0.0000E+00  0.0000E+00
  Element nb      COORD1      COORD2         S11         S22         S33         S12         E11         E22         E33         E12
          43  3.5502E+00  5.2932E-02  0.0000E+00  0.0000E+00  0.0000E+00  0.0000E+00  0.0000E+00  0.0000E+00  0.0000E+00  0.0000E+00
          43  3.5430E+00  1.9755E-01  0.0000E+00  0.0000E+00  0.0000E+00  0.0000E+00  0.0000E+00  0.0000E+00  0.0000E+00  0.0000E+00
          43  3.6948E+00  5.2922E-02  0.0000E+00  0.0000E+00  0.0000E+00  0.0000E+00  0.0000E+00  0.0000E+00  0.0000E+00  0.0000E+00
          43  3.6883E+00  1.9751E-01  0.0000E+00  0.0000E+00  0.0000E+00  0.0000E+00  0.0000E+00  0.0000E+00  0.0000E+00  0.0000E+00
  Element nb      COORD1      COORD2         S11         S22         S33         S12         E11         E22         E33         E12
          44  3.8006E+00  5.2915E-02  0.0000E+00  0.0000E+00  0.0000E+00  0.0000E+00  0.0000E+00  0.0000E+00  0.0000E+00  0.0000E+00
          44  3.7946E+00  1.9748E-01  0.0000E+00  0.0000E+00  0.0000E+00  0.0000E+00  0.0000E+00  0.0000E+00  0.0000E+00  0.0000E+00
          44  3.9452E+00  5.2906E-02  0.0000E+00  0.0000E+00  0.0000E+00  0.0000E+00  0.0000E+00  0.0000E+00  0.0000E+00  0.0000E+00
          44  3.9399E+00  1.9745E-01  0.0000E+00  0.0000E+00  0.0000E+00  0.0000E+00  0.0000E+00  0.0000E+00  0.0000E+00  0.0000E+00
  Element nb      COORD1      COORD2         S11         S22         S33         S12         E11         E22         E33         E12
          45  4.0511E+00  5.2899E-02  0.0000E+00  0.0000E+00  0.0000E+00  0.0000E+00  0.0000E+00  0.0000E+00  0.0000E+00  0.0000E+00
          45  4.0462E+00  1.9742E-01  0.0000E+00  0.0000E+00  0.0000E+00  0.0000E+00  0.0000E+00  0.0000E+00  0.0000E+00  0.0000E+00
          45  4.1957E+00  5.2889E-02  0.0000E+00  0.0000E+00  0.0000E+00  0.0000E+00  0.0000E+00  0.0000E+00  0.0000E+00  0.0000E+00
          45  4.1915E+00  1.9738E-01  0.0000E+00  0.0000E+00  0.0000E+00  0.0000E+00  0.0000E+00  0.0000E+00  0.0000E+00  0.0000E+00
  Element nb      COORD1      COORD2         S11         S22         S33         S12         E11         E22         E33         E12
          46  4.3015E+00  5.2882E-02  0.0000E+00  0.0000E+00  0.0000E+00  0.0000E+00  0.0000E+00  0.0000E+00  0.0000E+00  0.0000E+00
          46  4.2979E+00  1.9736E-01  0.0000E+00  0.0000E+00  0.0000E+00  0.0000E+00  0.0000E+00  0.0000E+00  0.0000E+00  0.0000E+00
          46  4.4461E+00  5.2872E-02  0.0000E+00  0.0000E+00  0.0000E+00  0.0000E+00  0.0000E+00  0.0000E+00  0.0000E+00  0.0000E+00
          46  4.4432E+00  1.9732E-01  0.0000E+00  0.0000E+00  0.0000E+00  0.0000E+00  0.0000E+00  0.0000E+00  0.0000E+00  0.0000E+00
  Element nb      COORD1      COORD2         S11         S22         S33         S12         E11         E22         E33         E12
          47  4.5520E+00  5.2865E-02  0.0000E+00  0.0000E+00  0.0000E+00  0.0000E+00  0.0000E+00  0.0000E+00  0.0000E+00  0.0000E+00
          47  4.5495E+00  1.9729E-01  0.0000E+00  0.0000E+00  0.0000E+00  0.0000E+00  0.0000E+00  0.0000E+00  0.0000E+00  0.0000E+00
          47  4.6966E+00  5.2855E-02  0.0000E+00  0.0000E+00  0.0000E+00  0.0000E+00  0.0000E+00  0.0000E+00  0.0000E+00  0.0000E+00
          47  4.6949E+00  1.9726E-01  0.0000E+00  0.0000E+00  0.0000E+00  0.0000E+00  0.0000E+00  0.0000E+00  0.0000E+00  0.0000E+00
  Element nb      COORD1      COORD2         S11         S22         S33         S12         E11         E22         E33         E12
          48  4.8024E+00  5.2847E-02  0.0000E+00  0.0000E+00  0.0000E+00  0.0000E+00  0.0000E+00  0.0000E+00  0.0000E+00  0.0000E+00
          48  4.8013E+00  1.9723E-01  0.0000E+00  0.0000E+00  0.0000E+00  0.0000E+00  0.0000E+00  0.0000E+00  0.0000E+00  0.0000E+00
          48  4.9471E+00  5.2835E-02  0.0000E+00  0.0000E+00  0.0000E+00  0.0000E+00  0.0000E+00  0.0000E+00  0.0000E+00  0.0000E+00
          48  4.9468E+00  1.9718E-01  0.0000E+00  0.0000E+00  0.0000E+00  0.0000E+00  0.0000E+00  0.0000E+00  0.0000E+00  0.0000E+00
  Element nb      COORD1      COORD2         S11         S22         S33         S12         E11         E22         E33         E12
          49  4.9466E+00  3.0285E-01  0.0000E+00  0.0000E+00  0.0000E+00  0.0000E+00  0.0000E+00  0.0000E+00  0.0000E+00  0.0000E+00
          49  4.8007E+00  3.0291E-01  0.0000E+00  0.0000E+00  0.0000E+00  0.0000E+00  0.0000E+00  0.0000E+00  0.0000E+00  0.0000E+00
          49  4.9465E+00  4.4720E-01  0.0000E+00  0.0000E+00  0.0000E+00  0.0000E+00  0.0000E+00  0.0000E+00  0.0000E+00  0.0000E+00
          49  4.8002E+00  4.4727E-01  0.0000E+00  0.0000E+00  0.0000E+00  0.0000E+00  0.0000E+00  0.0000E+00  0.0000E+00  0.0000E+00
  Element nb      COORD1      COORD2         S11         S22         S33         S12         E11         E22         E33         E12
          50  4.9464E+00  5.5286E-01  0.0000E+00  0.0000E+00  0.0000E+00  0.0000E+00  0.0000E+00  0.0000E+00  0.0000E+00  0.0000E+00
          50  4.8000E+00  5.5294E-01  0.0000E+00  0.0000E+00  0.0000E+00  0.0000E+00  0.0000E+00  0.0000E+00  0.0000E+00  0.0000E+00
          50  4.9464E+00  6.9720E-01  0.0000E+00  0.0000E+00  0.0000E+00  0.0000E+00  0.0000E+00  0.0000E+00  0.0000E+00  0.0000E+00
          50  4.7999E+00  6.9728E-01  0.0000E+00  0.0000E+00  0.0000E+00  0.0000E+00  0.0000E+00  0.0000E+00  0.0000E+00  0.0000E+00
  Element nb      COORD1      COORD2         S11         S22         S33         S12         E11         E22         E33         E12
          51  4.9464E+00  8.0286E-01  0.0000E+00  0.0000E+00  0.0000E+00  0.0000E+00  0.0000E+00  0.0000E+00  0.0000E+00  0.0000E+00
          51  4.7999E+00  8.0294E-01  0.0000E+00  0.0000E+00  0.0000E+00  0.0000E+00  0.0000E+00  0.0000E+00  0.0000E+00  0.0000E+00
          51  4.9464E+00  9.4720E-01  0.0000E+00  0.0000E+00  0.0000E+00  0.0000E+00  0.0000E+00  0.0000E+00  0.0000E+00  0.0000E+00
          51  4.8001E+00  9.4727E-01  0.0000E+00  0.0000E+00  0.0000E+00  0.0000E+00  0.0000E+00  0.0000E+00  0.0000E+00  0.0000E+00
  Element nb      COORD1      COORD2         S11         S22         S33         S12         E11         E22         E33         E12
          52  4.9465E+00  1.0529E+00  0.0000E+00  0.0000E+00  0.0000E+00  0.0000E+00  0.0000E+00  0.0000E+00  0.0000E+00  0.0000E+00
          52  4.8002E+00  1.0529E+00  0.0000E+00  0.0000E+00  0.0000E+00  0.0000E+00  0.0000E+00  0.0000E+00  0.0000E+00  0.0000E+00
          52  4.9465E+00  1.1972E+00  0.0000E+00  0.0000E+00  0.0000E+00  0.0000E+00  0.0000E+00  0.0000E+00  0.0000E+00  0.0000E+00
          52  4.8004E+00  1.1973E+00  0.0000E+00  0.0000E+00  0.0000E+00  0.0000E+00  0.0000E+00  0.0000E+00  0.0000E+00  0.0000E+00
  Element nb      COORD1      COORD2         S11         S22         S33         S12         E11         E22         E33         E12
          53  4.9466E+00  1.3029E+00  0.0000E+00  0.0000E+00  0.0000E+00  0.0000E+00  0.0000E+00  0.0000E+00  0.0000E+00  0.0000E+00
          53  4.8006E+00  1.3029E+00  0.0000E+00  0.0000E+00  0.0000E+00  0.0000E+00  0.0000E+00  0.0000E+00  0.0000E+00  0.0000E+00
          53  4.9466E+00  1.4472E+00  0.0000E+00  0.0000E+00  0.0000E+00  0.0000E+00  0.0000E+00  0.0000E+00  0.0000E+00  0.0000E+00
          53  4.8008E+00  1.4472E+00  0.0000E+00  0.0000E+00  0.0000E+00  0.0000E+00  0.0000E+00  0.0000E+00  0.0000E+00  0.0000E+00
  Element nb      COORD1      COORD2         S11         S22         S33         S12         E11         E22         E33         E12
          54  4.9467E+00  1.5528E+00  0.0000E+00  0.0000E+00  0.0000E+00  0.0000E+00  0.0000E+00  0.0000E+00  0.0000E+00  0.0000E+00
          54  4.8010E+00  1.5529E+00  0.0000E+00  0.0000E+00  0.0000E+00  0.0000E+00  0.0000E+00  0.0000E+00  0.0000E+00  0.0000E+00
          54  4.9468E+00  1.6972E+00  0.0000E+00  0.0000E+00  0.0000E+00  0.0000E+00  0.0000E+00  0.0000E+00  0.0000E+00  0.0000E+00
          54  4.8013E+00  1.6972E+00  0.0000E+00  0.0000E+00  0.0000E+00  0.0000E+00  0.0000E+00  0.0000E+00  0.0000E+00  0.0000E+00
  Element nb      COORD1      COORD2         S11         S22         S33         S12         E11         E22         E33         E12
          55  4.9468E+00  1.8028E+00  0.0000E+00  0.0000E+00  0.0000E+00  0.0000E+00  0.0000E+00  0.0000E+00  0.0000E+00  0.0000E+00
          55  4.8015E+00  1.8029E+00  0.0000E+00  0.0000E+00  0.0000E+00  0.0000E+00  0.0000E+00  0.0000E+00  0.0000E+00  0.0000E+00
          55  4.9469E+00  1.9472E+00  0.0000E+00  0.0000E+00  0.0000E+00  0.0000E+00  0.0000E+00  0.0000E+00  0.0000E+00  0.0000E+00
          55  4.8018E+00  1.9472E+00  0.0000E+00  0.0000E+00  0.0000E+00  0.0000E+00  0.0000E+00  0.0000E+00  0.0000E+00  0.0000E+00
  Element nb      COORD1      COORD2         S11         S22         S33         S12         E11         E22         E33         E12
          56  4.9469E+00  2.0528E+00  0.0000E+00  0.0000E+00  0.0000E+00  0.0000E+00  0.0000E+00  0.0000E+00  0.0000E+00  0.0000E+00
          56  4.8020E+00  2.0529E+00  0.0000E+00  0.0000E+00  0.0000E+00  0.0000E+00  0.0000E+00  0.0000E+00  0.0000E+00  0.0000E+00
          56  4.9470E+00  2.1972E+00  0.0000E+00  0.0000E+00  0.0000E+00  0.0000E+00  0.0000E+00  0.0000E+00  0.0000E+00  0.0000E+00
          56  4.8022E+00  2.1972E+00  0.0000E+00  0.0000E+00  0.0000E+00  0.0000E+00  0.0000E+00  0.0000E+00  0.0000E+00  0.0000E+00
  Element nb      COORD1      COORD2         S11         S22         S33         S12         E11         E22         E33         E12
          57  4.9471E+00  2.3028E+00  0.0000E+00  0.0000E+00  0.0000E+00  0.0000E+00  0.0000E+00  0.0000E+00  0.0000E+00  0.0000E+00
          57  4.8025E+00  2.3028E+00  0.0000E+00  0.0000E+00  0.0000E+00  0.0000E+00  0.0000E+00  0.0000E+00  0.0000E+00  0.0000E+00
          57  4.9471E+00  2.4472E+00  0.0000E+00  0.0000E+00  0.0000E+00  0.0000E+00  0.0000E+00  0.0000E+00  0.0000E+00  0.0000E+00
          57  4.8027E+00  2.4472E+00  0.0000E+00  0.0000E+00  0.0000E+00  0.0000E+00  0.0000E+00  0.0000E+00  0.0000E+00  0.0000E+00
  Element nb      COORD1      COORD2         S11         S22         S33         S12         E11         E22         E33         E12
          58  4.6940E+00  3.0295E-01  0.0000E+00  0.0000E+00  0.0000E+00  0.0000E+00  0.0000E+00  0.0000E+00  0.0000E+00  0.0000E+00
          58  4.5482E+00  3.0301E-01  0.0000E+00  0.0000E+00  0.0000E+00  0.0000E+00  0.0000E+00  0.0000E+00  0.0000E+00  0.0000E+00
          58  4.6932E+00  4.4732E-01  0.0000E+00  0.0000E+00  0.0000E+00  0.0000E+00  0.0000E+00  0.0000E+00  0.0000E+00  0.0000E+00
          58  4.5471E+00  4.4739E-01  0.0000E+00  0.0000E+00  0.0000E+00  0.0000E+00  0.0000E+00  0.0000E+00  0.0000E+00  0.0000E+00
  Element nb      COORD1      COORD2         S11         S22         S33         S12         E11         E22         E33         E12
          59  4.6929E+00  5.5300E-01  0.0000E+00  0.0000E+00  0.0000E+00  0.0000E+00  0.0000E+00  0.0000E+00  0.0000E+00  0.0000E+00
          59  4.5466E+00  5.5307E-01  0.0000E+00  0.0000E+00  0.0000E+00  0.0000E+00  0.0000E+00  0.0000E+00  0.0000E+00  0.0000E+00
          59  4.6927E+00  6.9734E-01  0.0000E+00  0.0000E+00  0.0000E+00  0.0000E+00  0.0000E+00  0.0000E+00  0.0000E+00  0.0000E+00
          59  4.5463E+00  6.9742E-01  0.0000E+00  0.0000E+00  0.0000E+00  0.0000E+00  0.0000E+00  0.0000E+00  0.0000E+00  0.0000E+00
  Element nb      COORD1      COORD2         S11         S22         S33         S12         E11         E22         E33         E12
          60  4.6927E+00  8.0300E-01  0.0000E+00  0.0000E+00  0.0000E+00  0.0000E+00  0.0000E+00  0.0000E+00  0.0000E+00  0.0000E+00
          60  4.5464E+00  8.0308E-01  0.0000E+00  0.0000E+00  0.0000E+00  0.0000E+00  0.0000E+00  0.0000E+00  0.0000E+00  0.0000E+00
          60  4.6929E+00  9.4733E-01  0.0000E+00  0.0000E+00  0.0000E+00  0.0000E+00  0.0000E+00  0.0000E+00  0.0000E+00  0.0000E+00
          60  4.5466E+00  9.4741E-01  0.0000E+00  0.0000E+00  0.0000E+00  0.0000E+00  0.0000E+00  0.0000E+00  0.0000E+00  0.0000E+00
  Element nb      COORD1      COORD2         S11         S22         S33         S12         E11         E22         E33         E12
          61  4.6931E+00  1.0530E+00  0.0000E+00  0.0000E+00  0.0000E+00  0.0000E+00  0.0000E+00  0.0000E+00  0.0000E+00  0.0000E+00
          61  4.5469E+00  1.0531E+00  0.0000E+00  0.0000E+00  0.0000E+00  0.0000E+00  0.0000E+00  0.0000E+00  0.0000E+00  0.0000E+00
          61  4.6934E+00  1.1973E+00  0.0000E+00  0.0000E+00  0.0000E+00  0.0000E+00  0.0000E+00  0.0000E+00  0.0000E+00  0.0000E+00
          61  4.5474E+00  1.1974E+00  0.0000E+00  0.0000E+00  0.0000E+00  0.0000E+00  0.0000E+00  0.0000E+00  0.0000E+00  0.0000E+00
  Element nb      COORD1      COORD2         S11         S22         S33         S12         E11         E22         E33         E12
          62  4.6937E+00  1.3030E+00  0.0000E+00  0.0000E+00  0.0000E+00  0.0000E+00  0.0000E+00  0.0000E+00  0.0000E+00  0.0000E+00
          62  4.5477E+00  1.3030E+00  0.0000E+00  0.0000E+00  0.0000E+00  0.0000E+00  0.0000E+00  0.0000E+00  0.0000E+00  0.0000E+00
          62  4.6941E+00  1.4473E+00  0.0000E+00  0.0000E+00  0.0000E+00  0.0000E+00  0.0000E+00  0.0000E+00  0.0000E+00  0.0000E+00
          62  4.5483E+00  1.4473E+00  0.0000E+00  0.0000E+00  0.0000E+00  0.0000E+00  0.0000E+00  0.0000E+00  0.0000E+00  0.0000E+00
  Element nb      COORD1      COORD2         S11         S22         S33         S12         E11         E22         E33         E12
          63  4.6944E+00  1.5529E+00  0.0000E+00  0.0000E+00  0.0000E+00  0.0000E+00  0.0000E+00  0.0000E+00  0.0000E+00  0.0000E+00
          63  4.5487E+00  1.5530E+00  0.0000E+00  0.0000E+00  0.0000E+00  0.0000E+00  0.0000E+00  0.0000E+00  0.0000E+00  0.0000E+00
          63  4.6948E+00  1.6973E+00  0.0000E+00  0.0000E+00  0.0000E+00  0.0000E+00  0.0000E+00  0.0000E+00  0.0000E+00  0.0000E+00
          63  4.5494E+00  1.6973E+00  0.0000E+00  0.0000E+00  0.0000E+00  0.0000E+00  0.0000E+00  0.0000E+00  0.0000E+00  0.0000E+00
  Element nb      COORD1      COORD2         S11         S22         S33         S12         E11         E22         E33         E12
          64  4.6951E+00  1.8029E+00  0.0000E+00  0.0000E+00  0.0000E+00  0.0000E+00  0.0000E+00  0.0000E+00  0.0000E+00  0.0000E+00
          64  4.5498E+00  1.8029E+00  0.0000E+00  0.0000E+00  0.0000E+00  0.0000E+00  0.0000E+00  0.0000E+00  0.0000E+00  0.0000E+00
          64  4.6955E+00  1.9472E+00  0.0000E+00  0.0000E+00  0.0000E+00  0.0000E+00  0.0000E+00  0.0000E+00  0.0000E+00  0.0000E+00
          64  4.5504E+00  1.9473E+00  0.0000E+00  0.0000E+00  0.0000E+00  0.0000E+00  0.0000E+00  0.0000E+00  0.0000E+00  0.0000E+00
  Element nb      COORD1      COORD2         S11         S22         S33         S12         E11         E22         E33         E12
          65  4.6958E+00  2.0529E+00  0.0000E+00  0.0000E+00  0.0000E+00  0.0000E+00  0.0000E+00  0.0000E+00  0.0000E+00  0.0000E+00
          65  4.5509E+00  2.0529E+00  0.0000E+00  0.0000E+00  0.0000E+00  0.0000E+00  0.0000E+00  0.0000E+00  0.0000E+00  0.0000E+00
          65  4.6963E+00  2.1972E+00  0.0000E+00  0.0000E+00  0.0000E+00  0.0000E+00  0.0000E+00  0.0000E+00  0.0000E+00  0.0000E+00
          65  4.5515E+00  2.1972E+00  0.0000E+00  0.0000E+00  0.0000E+00  0.0000E+00  0.0000E+00  0.0000E+00  0.0000E+00  0.0000E+00
  Element nb      COORD1      COORD2         S11         S22         S33         S12         E11         E22         E33         E12
          66  4.6966E+00  2.3029E+00  0.0000E+00  0.0000E+00  0.0000E+00  0.0000E+00  0.0000E+00  0.0000E+00  0.0000E+00  0.0000E+00
          66  4.5520E+00  2.3029E+00  0.0000E+00  0.0000E+00  0.0000E+00  0.0000E+00  0.0000E+00  0.0000E+00  0.0000E+00  0.0000E+00
          66  4.6970E+00  2.4472E+00  0.0000E+00  0.0000E+00  0.0000E+00  0.0000E+00  0.0000E+00  0.0000E+00  0.0000E+00  0.0000E+00
          66  4.5526E+00  2.4472E+00  0.0000E+00  0.0000E+00  0.0000E+00  0.0000E+00  0.0000E+00  0.0000E+00  0.0000E+00  0.0000E+00
  Element nb      COORD1      COORD2         S11         S22         S33         S12         E11         E22         E33         E12
          67  4.4416E+00  3.0304E-01  0.0000E+00  0.0000E+00  0.0000E+00  0.0000E+00  0.0000E+00  0.0000E+00  0.0000E+00  0.0000E+00
          67  4.2959E+00  3.0310E-01  0.0000E+00  0.0000E+00  0.0000E+00  0.0000E+00  0.0000E+00  0.0000E+00  0.0000E+00  0.0000E+00
          67  4.4402E+00  4.4744E-01  0.0000E+00  0.0000E+00  0.0000E+00  0.0000E+00  0.0000E+00  0.0000E+00  0.0000E+00  0.0000E+00
          67  4.2941E+00  4.4750E-01  0.0000E+00  0.0000E+00  0.0000E+00  0.0000E+00  0.0000E+00  0.0000E+00  0.0000E+00  0.0000E+00
  Element nb      COORD1      COORD2         S11         S22         S33         S12         E11         E22         E33         E12
          68  4.4395E+00  5.5312E-01  0.0000E+00  0.0000E+00  0.0000E+00  0.0000E+00  0.0000E+00  0.0000E+00  0.0000E+00  0.0000E+00
          68  4.2933E+00  5.5320E-01  0.0000E+00  0.0000E+00  0.0000E+00  0.0000E+00  0.0000E+00  0.0000E+00  0.0000E+00  0.0000E+00
          68  4.4392E+00  6.9747E-01  0.0000E+00  0.0000E+00  0.0000E+00  0.0000E+00  0.0000E+00  0.0000E+00  0.0000E+00  0.0000E+00
          68  4.2929E+00  6.9755E-01  0.0000E+00  0.0000E+00  0.0000E+00  0.0000E+00  0.0000E+00  0.0000E+00  0.0000E+00  0.0000E+00
  Element nb      COORD1      COORD2         S11         S22         S33         S12         E11         E22         E33         E12
          69  4.4392E+00  8.0314E-01  0.0000E+00  0.0000E+00  0.0000E+00  0.0000E+00  0.0000E+00  0.0000E+00  0.0000E+00  0.0000E+00
          69  4.2929E+00  8.0321E-01  0.0000E+00  0.0000E+00  0.0000E+00  0.0000E+00  0.0000E+00  0.0000E+00  0.0000E+00  0.0000E+00
          69  4.4395E+00  9.4746E-01  0.0000E+00  0.0000E+00  0.0000E+00  0.0000E+00  0.0000E+00  0.0000E+00  0.0000E+00  0.0000E+00
          69  4.2932E+00  9.4754E-01  0.0000E+00  0.0000E+00  0.0000E+00  0.0000E+00  0.0000E+00  0.0000E+00  0.0000E+00  0.0000E+00
  Element nb      COORD1      COORD2         S11         S22         S33         S12         E11         E22         E33         E12
          70  4.4398E+00  1.0531E+00  0.0000E+00  0.0000E+00  0.0000E+00  0.0000E+00  0.0000E+00  0.0000E+00  0.0000E+00  0.0000E+00
          70  4.2936E+00  1.0532E+00  0.0000E+00  0.0000E+00  0.0000E+00  0.0000E+00  0.0000E+00  0.0000E+00  0.0000E+00  0.0000E+00
          70  4.4404E+00  1.1974E+00  0.0000E+00  0.0000E+00  0.0000E+00  0.0000E+00  0.0000E+00  0.0000E+00  0.0000E+00  0.0000E+00
          70  4.2943E+00  1.1975E+00  0.0000E+00  0.0000E+00  0.0000E+00  0.0000E+00  0.0000E+00  0.0000E+00  0.0000E+00  0.0000E+00
  Element nb      COORD1      COORD2         S11         S22         S33         S12         E11         E22         E33         E12
          71  4.4409E+00  1.3031E+00  0.0000E+00  0.0000E+00  0.0000E+00  0.0000E+00  0.0000E+00  0.0000E+00  0.0000E+00  0.0000E+00
          71  4.2949E+00  1.3031E+00  0.0000E+00  0.0000E+00  0.0000E+00  0.0000E+00  0.0000E+00  0.0000E+00  0.0000E+00  0.0000E+00
          71  4.4416E+00  1.4474E+00  0.0000E+00  0.0000E+00  0.0000E+00  0.0000E+00  0.0000E+00  0.0000E+00  0.0000E+00  0.0000E+00
          71  4.2958E+00  1.4474E+00  0.0000E+00  0.0000E+00  0.0000E+00  0.0000E+00  0.0000E+00  0.0000E+00  0.0000E+00  0.0000E+00
  Element nb      COORD1      COORD2         S11         S22         S33         S12         E11         E22         E33         E12
          72  4.4421E+00  1.5530E+00  0.0000E+00  0.0000E+00  0.0000E+00  0.0000E+00  0.0000E+00  0.0000E+00  0.0000E+00  0.0000E+00
          72  4.2965E+00  1.5531E+00  0.0000E+00  0.0000E+00  0.0000E+00  0.0000E+00  0.0000E+00  0.0000E+00  0.0000E+00  0.0000E+00
          72  4.4429E+00  1.6973E+00  0.0000E+00  0.0000E+00  0.0000E+00  0.0000E+00  0.0000E+00  0.0000E+00  0.0000E+00  0.0000E+00
          72  4.2974E+00  1.6974E+00  0.0000E+00  0.0000E+00  0.0000E+00  0.0000E+00  0.0000E+00  0.0000E+00  0.0000E+00  0.0000E+00
  Element nb      COORD1      COORD2         S11         S22         S33         S12         E11         E22         E33         E12
          73  4.4434E+00  1.8030E+00  0.0000E+00  0.0000E+00  0.0000E+00  0.0000E+00  0.0000E+00  0.0000E+00  0.0000E+00  0.0000E+00
          73  4.2981E+00  1.8030E+00  0.0000E+00  0.0000E+00  0.0000E+00  0.0000E+00  0.0000E+00  0.0000E+00  0.0000E+00  0.0000E+00
          73  4.4442E+00  1.9473E+00  0.0000E+00  0.0000E+00  0.0000E+00  0.0000E+00  0.0000E+00  0.0000E+00  0.0000E+00  0.0000E+00
          73  4.2991E+00  1.9473E+00  0.0000E+00  0.0000E+00  0.0000E+00  0.0000E+00  0.0000E+00  0.0000E+00  0.0000E+00  0.0000E+00
  Element nb      COORD1      COORD2         S11         S22         S33         S12         E11         E22         E33         E12
          74  4.4448E+00  2.0529E+00  0.0000E+00  0.0000E+00  0.0000E+00  0.0000E+00  0.0000E+00  0.0000E+00  0.0000E+00  0.0000E+00
          74  4.2998E+00  2.0529E+00  0.0000E+00  0.0000E+00  0.0000E+00  0.0000E+00  0.0000E+00  0.0000E+00  0.0000E+00  0.0000E+00
          74  4.4455E+00  2.1972E+00  0.0000E+00  0.0000E+00  0.0000E+00  0.0000E+00  0.0000E+00  0.0000E+00  0.0000E+00  0.0000E+00
          74  4.3008E+00  2.1972E+00  0.0000E+00  0.0000E+00  0.0000E+00  0.0000E+00  0.0000E+00  0.0000E+00  0.0000E+00  0.0000E+00
  Element nb      COORD1      COORD2         S11         S22         S33         S12         E11         E22         E33         E12
          75  4.4461E+00  2.3029E+00  0.0000E+00  0.0000E+00  0.0000E+00  0.0000E+00  0.0000E+00  0.0000E+00  0.0000E+00  0.0000E+00
          75  4.3015E+00  2.3029E+00  0.0000E+00  0.0000E+00  0.0000E+00  0.0000E+00  0.0000E+00  0.0000E+00  0.0000E+00  0.0000E+00
          75  4.4469E+00  2.4472E+00  0.0000E+00  0.0000E+00  0.0000E+00  0.0000E+00  0.0000E+00  0.0000E+00  0.0000E+00  0.0000E+00
          75  4.3025E+00  2.4472E+00  0.0000E+00  0.0000E+00  0.0000E+00  0.0000E+00  0.0000E+00  0.0000E+00  0.0000E+00  0.0000E+00
  Element nb      COORD1      COORD2         S11         S22         S33         S12         E11         E22         E33         E12
          76  4.1892E+00  3.0313E-01  0.0000E+00  0.0000E+00  0.0000E+00  0.0000E+00  0.0000E+00  0.0000E+00  0.0000E+00  0.0000E+00
          76  4.0436E+00  3.0318E-01  0.0000E+00  0.0000E+00  0.0000E+00  0.0000E+00  0.0000E+00  0.0000E+00  0.0000E+00  0.0000E+00
          76  4.1872E+00  4.4755E-01  0.0000E+00  0.0000E+00  0.0000E+00  0.0000E+00  0.0000E+00  0.0000E+00  0.0000E+00  0.0000E+00
          76  4.0412E+00  4.4761E-01  0.0000E+00  0.0000E+00  0.0000E+00  0.0000E+00  0.0000E+00  0.0000E+00  0.0000E+00  0.0000E+00
  Element nb      COORD1      COORD2         S11         S22         S33         S12         E11         E22         E33         E12
          77  4.1863E+00  5.5325E-01  0.0000E+00  0.0000E+00  0.0000E+00  0.0000E+00  0.0000E+00  0.0000E+00  0.0000E+00  0.0000E+00
          77  4.0401E+00  5.5332E-01  0.0000E+00  0.0000E+00  0.0000E+00  0.0000E+00  0.0000E+00  0.0000E+00  0.0000E+00  0.0000E+00
          77  4.1858E+00  6.9760E-01  0.0000E+00  0.0000E+00  0.0000E+00  0.0000E+00  0.0000E+00  0.0000E+00  0.0000E+00  0.0000E+00
          77  4.0395E+00  6.9768E-01  0.0000E+00  0.0000E+00  0.0000E+00  0.0000E+00  0.0000E+00  0.0000E+00  0.0000E+00  0.0000E+00
  Element nb      COORD1      COORD2         S11         S22         S33         S12         E11         E22         E33         E12
          78  4.1857E+00  8.0327E-01  0.0000E+00  0.0000E+00  0.0000E+00  0.0000E+00  0.0000E+00  0.0000E+00  0.0000E+00  0.0000E+00
          78  4.0394E+00  8.0334E-01  0.0000E+00  0.0000E+00  0.0000E+00  0.0000E+00  0.0000E+00  0.0000E+00  0.0000E+00  0.0000E+00
          78  4.1861E+00  9.4759E-01  0.0000E+00  0.0000E+00  0.0000E+00  0.0000E+00  0.0000E+00  0.0000E+00  0.0000E+00  0.0000E+00
          78  4.0399E+00  9.4766E-01  0.0000E+00  0.0000E+00  0.0000E+00  0.0000E+00  0.0000E+00  0.0000E+00  0.0000E+00  0.0000E+00
  Element nb      COORD1      COORD2         S11         S22         S33         S12         E11         E22         E33         E12
          79  4.1866E+00  1.0532E+00  0.0000E+00  0.0000E+00  0.0000E+00  0.0000E+00  0.0000E+00  0.0000E+00  0.0000E+00  0.0000E+00
          79  4.0404E+00  1.0533E+00  0.0000E+00  0.0000E+00  0.0000E+00  0.0000E+00  0.0000E+00  0.0000E+00  0.0000E+00  0.0000E+00
          79  4.1874E+00  1.1975E+00  0.0000E+00  0.0000E+00  0.0000E+00  0.0000E+00  0.0000E+00  0.0000E+00  0.0000E+00  0.0000E+00
          79  4.0413E+00  1.1976E+00  0.0000E+00  0.0000E+00  0.0000E+00  0.0000E+00  0.0000E+00  0.0000E+00  0.0000E+00  0.0000E+00
  Element nb      COORD1      COORD2         S11         S22         S33         S12         E11         E22         E33         E12
          80  4.1881E+00  1.3032E+00  0.0000E+00  0.0000E+00  0.0000E+00  0.0000E+00  0.0000E+00  0.0000E+00  0.0000E+00  0.0000E+00
          80  4.0421E+00  1.3032E+00  0.0000E+00  0.0000E+00  0.0000E+00  0.0000E+00  0.0000E+00  0.0000E+00  0.0000E+00  0.0000E+00
          80  4.1891E+00  1.4475E+00  0.0000E+00  0.0000E+00  0.0000E+00  0.0000E+00  0.0000E+00  0.0000E+00  0.0000E+00  0.0000E+00
          80  4.0433E+00  1.4475E+00  0.0000E+00  0.0000E+00  0.0000E+00  0.0000E+00  0.0000E+00  0.0000E+00  0.0000E+00  0.0000E+00
  Element nb      COORD1      COORD2         S11         S22         S33         S12         E11         E22         E33         E12
          81  4.1899E+00  1.5531E+00  0.0000E+00  0.0000E+00  0.0000E+00  0.0000E+00  0.0000E+00  0.0000E+00  0.0000E+00  0.0000E+00
          81  4.0442E+00  1.5532E+00  0.0000E+00  0.0000E+00  0.0000E+00  0.0000E+00  0.0000E+00  0.0000E+00  0.0000E+00  0.0000E+00
          81  4.1909E+00  1.6974E+00  0.0000E+00  0.0000E+00  0.0000E+00  0.0000E+00  0.0000E+00  0.0000E+00  0.0000E+00  0.0000E+00
          81  4.0455E+00  1.6974E+00  0.0000E+00  0.0000E+00  0.0000E+00  0.0000E+00  0.0000E+00  0.0000E+00  0.0000E+00  0.0000E+00
  Element nb      COORD1      COORD2         S11         S22         S33         S12         E11         E22         E33         E12
          82  4.1917E+00  1.8030E+00  0.0000E+00  0.0000E+00  0.0000E+00  0.0000E+00  0.0000E+00  0.0000E+00  0.0000E+00  0.0000E+00
          82  4.0464E+00  1.8031E+00  0.0000E+00  0.0000E+00  0.0000E+00  0.0000E+00  0.0000E+00  0.0000E+00  0.0000E+00  0.0000E+00
          82  4.1929E+00  1.9473E+00  0.0000E+00  0.0000E+00  0.0000E+00  0.0000E+00  0.0000E+00  0.0000E+00  0.0000E+00  0.0000E+00
          82  4.0477E+00  1.9474E+00  0.0000E+00  0.0000E+00  0.0000E+00  0.0000E+00  0.0000E+00  0.0000E+00  0.0000E+00  0.0000E+00
  Element nb      COORD1      COORD2         S11         S22         S33         S12         E11         E22         E33         E12
          83  4.1937E+00  2.0530E+00  0.0000E+00  0.0000E+00  0.0000E+00  0.0000E+00  0.0000E+00  0.0000E+00  0.0000E+00  0.0000E+00
          83  4.0487E+00  2.0530E+00  0.0000E+00  0.0000E+00  0.0000E+00  0.0000E+00  0.0000E+00  0.0000E+00  0.0000E+00  0.0000E+00
          83  4.1948E+00  2.1973E+00  0.0000E+00  0.0000E+00  0.0000E+00  0.0000E+00  0.0000E+00  0.0000E+00  0.0000E+00  0.0000E+00
          83  4.0500E+00  2.1973E+00  0.0000E+00  0.0000E+00  0.0000E+00  0.0000E+00  0.0000E+00  0.0000E+00  0.0000E+00  0.0000E+00
  Element nb      COORD1      COORD2         S11         S22         S33         S12         E11         E22         E33         E12
          84  4.1956E+00  2.3029E+00  0.0000E+00  0.0000E+00  0.0000E+00  0.0000E+00  0.0000E+00  0.0000E+00  0.0000E+00  0.0000E+00
          84  4.0510E+00  2.3029E+00  0.0000E+00  0.0000E+00  0.0000E+00  0.0000E+00  0.0000E+00  0.0000E+00  0.0000E+00  0.0000E+00
          84  4.1968E+00  2.4472E+00  0.0000E+00  0.0000E+00  0.0000E+00  0.0000E+00  0.0000E+00  0.0000E+00  0.0000E+00  0.0000E+00
          84  4.0523E+00  2.4472E+00  0.0000E+00  0.0000E+00  0.0000E+00  0.0000E+00  0.0000E+00  0.0000E+00  0.0000E+00  0.0000E+00
  Element nb      COORD1      COORD2         S11         S22         S33         S12         E11         E22         E33         E12
          85  3.9369E+00  3.0322E-01  0.0000E+00  0.0000E+00  0.0000E+00  0.0000E+00  0.0000E+00  0.0000E+00  0.0000E+00  0.0000E+00
          85  3.7913E+00  3.0327E-01  0.0000E+00  0.0000E+00  0.0000E+00  0.0000E+00  0.0000E+00  0.0000E+00  0.0000E+00  0.0000E+00
          85  3.9343E+00  4.4766E-01  0.0000E+00  0.0000E+00  0.0000E+00  0.0000E+00  0.0000E+00  0.0000E+00  0.0000E+00  0.0000E+00
          85  3.7882E+00  4.4773E-01  0.0000E+00  0.0000E+00  0.0000E+00  0.0000E+00  0.0000E+00  0.0000E+00  0.0000E+00  0.0000E+00
  Element nb      COORD1      COORD2         S11         S22         S33         S12         E11         E22         E33         E12
          86  3.9330E+00  5.5337E-01  0.0000E+00  0.0000E+00  0.0000E+00  0.0000E+00  0.0000E+00  0.0000E+00  0.0000E+00  0.0000E+00
          86  3.7868E+00  5.5344E-01  0.0000E+00  0.0000E+00  0.0000E+00  0.0000E+00  0.0000E+00  0.0000E+00  0.0000E+00  0.0000E+00
          86  3.9324E+00  6.9773E-01  0.0000E+00  0.0000E+00  0.0000E+00  0.0000E+00  0.0000E+00  0.0000E+00  0.0000E+00  0.0000E+00
          86  3.7861E+00  6.9781E-01  0.0000E+00  0.0000E+00  0.0000E+00  0.0000E+00  0.0000E+00  0.0000E+00  0.0000E+00  0.0000E+00
  Element nb      COORD1      COORD2         S11         S22         S33         S12         E11         E22         E33         E12
          87  3.9323E+00  8.0340E-01  0.0000E+00  0.0000E+00  0.0000E+00  0.0000E+00  0.0000E+00  0.0000E+00  0.0000E+00  0.0000E+00
          87  3.7860E+00  8.0347E-01  0.0000E+00  0.0000E+00  0.0000E+00  0.0000E+00  0.0000E+00  0.0000E+00  0.0000E+00  0.0000E+00
          87  3.9328E+00  9.4772E-01  0.0000E+00  0.0000E+00  0.0000E+00  0.0000E+00  0.0000E+00  0.0000E+00  0.0000E+00  0.0000E+00
          87  3.7865E+00  9.4779E-01  0.0000E+00  0.0000E+00  0.0000E+00  0.0000E+00  0.0000E+00  0.0000E+00  0.0000E+00  0.0000E+00
  Element nb      COORD1      COORD2         S11         S22         S33         S12         E11         E22         E33         E12
          88  3.9334E+00  1.0534E+00  0.0000E+00  0.0000E+00  0.0000E+00  0.0000E+00  0.0000E+00  0.0000E+00  0.0000E+00  0.0000E+00
          88  3.7872E+00  1.0534E+00  0.0000E+00  0.0000E+00  0.0000E+00  0.0000E+00  0.0000E+00  0.0000E+00  0.0000E+00  0.0000E+00
          88  3.9344E+00  1.1977E+00  0.0000E+00  0.0000E+00  0.0000E+00  0.0000E+00  0.0000E+00  0.0000E+00  0.0000E+00  0.0000E+00
          88  3.7884E+00  1.1977E+00  0.0000E+00  0.0000E+00  0.0000E+00  0.0000E+00  0.0000E+00  0.0000E+00  0.0000E+00  0.0000E+00
  Element nb      COORD1      COORD2         S11         S22         S33         S12         E11         E22         E33         E12
          89  3.9353E+00  1.3033E+00  0.0000E+00  0.0000E+00  0.0000E+00  0.0000E+00  0.0000E+00  0.0000E+00  0.0000E+00  0.0000E+00
          89  3.7893E+00  1.3033E+00  0.0000E+00  0.0000E+00  0.0000E+00  0.0000E+00  0.0000E+00  0.0000E+00  0.0000E+00  0.0000E+00
          89  3.9366E+00  1.4476E+00  0.0000E+00  0.0000E+00  0.0000E+00  0.0000E+00  0.0000E+00  0.0000E+00  0.0000E+00  0.0000E+00
          89  3.7908E+00  1.4476E+00  0.0000E+00  0.0000E+00  0.0000E+00  0.0000E+00  0.0000E+00  0.0000E+00  0.0000E+00  0.0000E+00
  Element nb      COORD1      COORD2         S11         S22         S33         S12         E11         E22         E33         E12
          90  3.9376E+00  1.5532E+00  0.0000E+00  0.0000E+00  0.0000E+00  0.0000E+00  0.0000E+00  0.0000E+00  0.0000E+00  0.0000E+00
          90  3.7920E+00  1.5532E+00  0.0000E+00  0.0000E+00  0.0000E+00  0.0000E+00  0.0000E+00  0.0000E+00  0.0000E+00  0.0000E+00
          90  3.9390E+00  1.6975E+00  0.0000E+00  0.0000E+00  0.0000E+00  0.0000E+00  0.0000E+00  0.0000E+00  0.0000E+00  0.0000E+00
          90  3.7936E+00  1.6975E+00  0.0000E+00  0.0000E+00  0.0000E+00  0.0000E+00  0.0000E+00  0.0000E+00  0.0000E+00  0.0000E+00
  Element nb      COORD1      COORD2         S11         S22         S33         S12         E11         E22         E33         E12
          91  3.9401E+00  1.8031E+00  0.0000E+00  0.0000E+00  0.0000E+00  0.0000E+00  0.0000E+00  0.0000E+00  0.0000E+00  0.0000E+00
          91  3.7948E+00  1.8031E+00  0.0000E+00  0.0000E+00  0.0000E+00  0.0000E+00  0.0000E+00  0.0000E+00  0.0000E+00  0.0000E+00
          91  3.9415E+00  1.9474E+00  0.0000E+00  0.0000E+00  0.0000E+00  0.0000E+00  0.0000E+00  0.0000E+00  0.0000E+00  0.0000E+00
          91  3.7964E+00  1.9474E+00  0.0000E+00  0.0000E+00  0.0000E+00  0.0000E+00  0.0000E+00  0.0000E+00  0.0000E+00  0.0000E+00
  Element nb      COORD1      COORD2         S11         S22         S33         S12         E11         E22         E33         E12
          92  3.9426E+00  2.0530E+00  0.0000E+00  0.0000E+00  0.0000E+00  0.0000E+00  0.0000E+00  0.0000E+00  0.0000E+00  0.0000E+00
          92  3.7976E+00  2.0530E+00  0.0000E+00  0.0000E+00  0.0000E+00  0.0000E+00  0.0000E+00  0.0000E+00  0.0000E+00  0.0000E+00
          92  3.9441E+00  2.1973E+00  0.0000E+00  0.0000E+00  0.0000E+00  0.0000E+00  0.0000E+00  0.0000E+00  0.0000E+00  0.0000E+00
          92  3.7993E+00  2.1973E+00  0.0000E+00  0.0000E+00  0.0000E+00  0.0000E+00  0.0000E+00  0.0000E+00  0.0000E+00  0.0000E+00
  Element nb      COORD1      COORD2         S11         S22         S33         S12         E11         E22         E33         E12
          93  3.9451E+00  2.3029E+00  0.0000E+00  0.0000E+00  0.0000E+00  0.0000E+00  0.0000E+00  0.0000E+00  0.0000E+00  0.0000E+00
          93  3.8005E+00  2.3029E+00  0.0000E+00  0.0000E+00  0.0000E+00  0.0000E+00  0.0000E+00  0.0000E+00  0.0000E+00  0.0000E+00
          93  3.9466E+00  2.4472E+00  0.0000E+00  0.0000E+00  0.0000E+00  0.0000E+00  0.0000E+00  0.0000E+00  0.0000E+00  0.0000E+00
          93  3.8022E+00  2.4472E+00  0.0000E+00  0.0000E+00  0.0000E+00  0.0000E+00  0.0000E+00  0.0000E+00  0.0000E+00  0.0000E+00
  Element nb      COORD1      COORD2         S11         S22         S33         S12         E11         E22         E33         E12
          94  3.6847E+00  3.0331E-01  0.0000E+00  0.0000E+00  0.0000E+00  0.0000E+00  0.0000E+00  0.0000E+00  0.0000E+00  0.0000E+00
          94  3.5390E+00  3.0336E-01  0.0000E+00  0.0000E+00  0.0000E+00  0.0000E+00  0.0000E+00  0.0000E+00  0.0000E+00  0.0000E+00
          94  3.6813E+00  4.4777E-01  0.0000E+00  0.0000E+00  0.0000E+00  0.0000E+00  0.0000E+00  0.0000E+00  0.0000E+00  0.0000E+00
          94  3.5353E+00  4.4784E-01  0.0000E+00  0.0000E+00  0.0000E+00  0.0000E+00  0.0000E+00  0.0000E+00  0.0000E+00  0.0000E+00
  Element nb      COORD1      COORD2         S11         S22         S33         S12         E11         E22         E33         E12
          95  3.6798E+00  5.5349E-01  0.0000E+00  0.0000E+00  0.0000E+00  0.0000E+00  0.0000E+00  0.0000E+00  0.0000E+00  0.0000E+00
          95  3.5336E+00  5.5356E-01  0.0000E+00  0.0000E+00  0.0000E+00  0.0000E+00  0.0000E+00  0.0000E+00  0.0000E+00  0.0000E+00
          95  3.6790E+00  6.9786E-01  0.0000E+00  0.0000E+00  0.0000E+00  0.0000E+00  0.0000E+00  0.0000E+00  0.0000E+00  0.0000E+00
          95  3.5327E+00  6.9794E-01  0.0000E+00  0.0000E+00  0.0000E+00  0.0000E+00  0.0000E+00  0.0000E+00  0.0000E+00  0.0000E+00
  Element nb      COORD1      COORD2         S11         S22         S33         S12         E11         E22         E33         E12
          96  3.6789E+00  8.0353E-01  0.0000E+00  0.0000E+00  0.0000E+00  0.0000E+00  0.0000E+00  0.0000E+00  0.0000E+00  0.0000E+00
          96  3.5326E+00  8.0361E-01  0.0000E+00  0.0000E+00  0.0000E+00  0.0000E+00  0.0000E+00  0.0000E+00  0.0000E+00  0.0000E+00
          96  3.6795E+00  9.4785E-01  0.0000E+00  0.0000E+00  0.0000E+00  0.0000E+00  0.0000E+00  0.0000E+00  0.0000E+00  0.0000E+00
          96  3.5332E+00  9.4792E-01  0.0000E+00  0.0000E+00  0.0000E+00  0.0000E+00  0.0000E+00  0.0000E+00  0.0000E+00  0.0000E+00
  Element nb      COORD1      COORD2         S11         S22         S33         S12         E11         E22         E33         E12
          97  3.6801E+00  1.0535E+00  0.0000E+00  0.0000E+00  0.0000E+00  0.0000E+00  0.0000E+00  0.0000E+00  0.0000E+00  0.0000E+00
          97  3.5340E+00  1.0536E+00  0.0000E+00  0.0000E+00  0.0000E+00  0.0000E+00  0.0000E+00  0.0000E+00  0.0000E+00  0.0000E+00
          97  3.6814E+00  1.1978E+00  0.0000E+00  0.0000E+00  0.0000E+00  0.0000E+00  0.0000E+00  0.0000E+00  0.0000E+00  0.0000E+00
          97  3.5354E+00  1.1978E+00  0.0000E+00  0.0000E+00  0.0000E+00  0.0000E+00  0.0000E+00  0.0000E+00  0.0000E+00  0.0000E+00
  Element nb      COORD1      COORD2         S11         S22         S33         S12         E11         E22         E33         E12
          98  3.6825E+00  1.3034E+00  0.0000E+00  0.0000E+00  0.0000E+00  0.0000E+00  0.0000E+00  0.0000E+00  0.0000E+00  0.0000E+00
          98  3.5366E+00  1.3035E+00  0.0000E+00  0.0000E+00  0.0000E+00  0.0000E+00  0.0000E+00  0.0000E+00  0.0000E+00  0.0000E+00
          98  3.6841E+00  1.4477E+00  0.0000E+00  0.0000E+00  0.0000E+00  0.0000E+00  0.0000E+00  0.0000E+00  0.0000E+00  0.0000E+00
          98  3.5383E+00  1.4477E+00  0.0000E+00  0.0000E+00  0.0000E+00  0.0000E+00  0.0000E+00  0.0000E+00  0.0000E+00  0.0000E+00
  Element nb      COORD1      COORD2         S11         S22         S33         S12         E11         E22         E33         E12
          99  3.6853E+00  1.5533E+00  0.0000E+00  0.0000E+00  0.0000E+00  0.0000E+00  0.0000E+00  0.0000E+00  0.0000E+00  0.0000E+00
          99  3.5397E+00  1.5533E+00  0.0000E+00  0.0000E+00  0.0000E+00  0.0000E+00  0.0000E+00  0.0000E+00  0.0000E+00  0.0000E+00
          99  3.6871E+00  1.6976E+00  0.0000E+00  0.0000E+00  0.0000E+00  0.0000E+00  0.0000E+00  0.0000E+00  0.0000E+00  0.0000E+00
          99  3.5416E+00  1.6976E+00  0.0000E+00  0.0000E+00  0.0000E+00  0.0000E+00  0.0000E+00  0.0000E+00  0.0000E+00  0.0000E+00
  Element nb      COORD1      COORD2         S11         S22         S33         S12         E11         E22         E33         E12
         100  3.6884E+00  1.8032E+00  0.0000E+00  0.0000E+00  0.0000E+00  0.0000E+00  0.0000E+00  0.0000E+00  0.0000E+00  0.0000E+00
         100  3.5431E+00  1.8032E+00  0.0000E+00  0.0000E+00  0.0000E+00  0.0000E+00  0.0000E+00  0.0000E+00  0.0000E+00  0.0000E+00
         100  3.6902E+00  1.9474E+00  0.0000E+00  0.0000E+00  0.0000E+00  0.0000E+00  0.0000E+00  0.0000E+00  0.0000E+00  0.0000E+00
         100  3.5451E+00  1.9475E+00  0.0000E+00  0.0000E+00  0.0000E+00  0.0000E+00  0.0000E+00  0.0000E+00  0.0000E+00  0.0000E+00
  Element nb      COORD1      COORD2         S11         S22         S33         S12         E11         E22         E33         E12
         101  3.6915E+00  2.0530E+00  0.0000E+00  0.0000E+00  0.0000E+00  0.0000E+00  0.0000E+00  0.0000E+00  0.0000E+00  0.0000E+00
         101  3.5465E+00  2.0531E+00  0.0000E+00  0.0000E+00  0.0000E+00  0.0000E+00  0.0000E+00  0.0000E+00  0.0000E+00  0.0000E+00
         101  3.6933E+00  2.1973E+00  0.0000E+00  0.0000E+00  0.0000E+00  0.0000E+00  0.0000E+00  0.0000E+00  0.0000E+00  0.0000E+00
         101  3.5486E+00  2.1973E+00  0.0000E+00  0.0000E+00  0.0000E+00  0.0000E+00  0.0000E+00  0.0000E+00  0.0000E+00  0.0000E+00
  Element nb      COORD1      COORD2         S11         S22         S33         S12         E11         E22         E33         E12
         102  3.6947E+00  2.3029E+00  0.0000E+00  0.0000E+00  0.0000E+00  0.0000E+00  0.0000E+00  0.0000E+00  0.0000E+00  0.0000E+00
         102  3.5501E+00  2.3029E+00  0.0000E+00  0.0000E+00  0.0000E+00  0.0000E+00  0.0000E+00  0.0000E+00  0.0000E+00  0.0000E+00
         102  3.6965E+00  2.4472E+00  0.0000E+00  0.0000E+00  0.0000E+00  0.0000E+00  0.0000E+00  0.0000E+00  0.0000E+00  0.0000E+00
         102  3.5521E+00  2.4472E+00  0.0000E+00  0.0000E+00  0.0000E+00  0.0000E+00  0.0000E+00  0.0000E+00  0.0000E+00  0.0000E+00
  Element nb      COORD1      COORD2         S11         S22         S33         S12         E11         E22         E33         E12
         103  3.4324E+00  3.0340E-01  0.0000E+00  0.0000E+00  0.0000E+00  0.0000E+00  0.0000E+00  0.0000E+00  0.0000E+00  0.0000E+00
         103  3.2867E+00  3.0345E-01  0.0000E+00  0.0000E+00  0.0000E+00  0.0000E+00  0.0000E+00  0.0000E+00  0.0000E+00  0.0000E+00
         103  3.4284E+00  4.4788E-01  0.0000E+00  0.0000E+00  0.0000E+00  0.0000E+00  0.0000E+00  0.0000E+00  0.0000E+00  0.0000E+00
         103  3.2824E+00  4.4795E-01  0.0000E+00  0.0000E+00  0.0000E+00  0.0000E+00  0.0000E+00  0.0000E+00  0.0000E+00  0.0000E+00
  Element nb      COORD1      COORD2         S11         S22         S33         S12         E11         E22         E33         E12
         104  3.4266E+00  5.5362E-01  0.0000E+00  0.0000E+00  0.0000E+00  0.0000E+00  0.0000E+00  0.0000E+00  0.0000E+00  0.0000E+00
         104  3.2804E+00  5.5369E-01  0.0000E+00  0.0000E+00  0.0000E+00  0.0000E+00  0.0000E+00  0.0000E+00  0.0000E+00  0.0000E+00
         104  3.4256E+00  6.9799E-01  0.0000E+00  0.0000E+00  0.0000E+00  0.0000E+00  0.0000E+00  0.0000E+00  0.0000E+00  0.0000E+00
         104  3.2793E+00  6.9807E-01  0.0000E+00  0.0000E+00  0.0000E+00  0.0000E+00  0.0000E+00  0.0000E+00  0.0000E+00  0.0000E+00
  Element nb      COORD1      COORD2         S11         S22         S33         S12         E11         E22         E33         E12
         105  3.4255E+00  8.0366E-01  0.0000E+00  0.0000E+00  0.0000E+00  0.0000E+00  0.0000E+00  0.0000E+00  0.0000E+00  0.0000E+00
         105  3.2792E+00  8.0374E-01  0.0000E+00  0.0000E+00  0.0000E+00  0.0000E+00  0.0000E+00  0.0000E+00  0.0000E+00  0.0000E+00
         105  3.4261E+00  9.4797E-01  0.0000E+00  0.0000E+00  0.0000E+00  0.0000E+00  0.0000E+00  0.0000E+00  0.0000E+00  0.0000E+00
         105  3.2799E+00  9.4805E-01  0.0000E+00  0.0000E+00  0.0000E+00  0.0000E+00  0.0000E+00  0.0000E+00  0.0000E+00  0.0000E+00
  Element nb      COORD1      COORD2         S11         S22         S33         S12         E11         E22         E33         E12
         106  3.4269E+00  1.0536E+00  0.0000E+00  0.0000E+00  0.0000E+00  0.0000E+00  0.0000E+00  0.0000E+00  0.0000E+00  0.0000E+00
         106  3.2807E+00  1.0537E+00  0.0000E+00  0.0000E+00  0.0000E+00  0.0000E+00  0.0000E+00  0.0000E+00  0.0000E+00  0.0000E+00
         106  3.4285E+00  1.1979E+00  0.0000E+00  0.0000E+00  0.0000E+00  0.0000E+00  0.0000E+00  0.0000E+00  0.0000E+00  0.0000E+00
         106  3.2824E+00  1.1979E+00  0.0000E+00  0.0000E+00  0.0000E+00  0.0000E+00  0.0000E+00  0.0000E+00  0.0000E+00  0.0000E+00
  Element nb      COORD1      COORD2         S11         S22         S33         S12         E11         E22         E33         E12
         107  3.4297E+00  1.3035E+00  0.0000E+00  0.0000E+00  0.0000E+00  0.0000E+00  0.0000E+00  0.0000E+00  0.0000E+00  0.0000E+00
         107  3.2838E+00  1.3036E+00  0.0000E+00  0.0000E+00  0.0000E+00  0.0000E+00  0.0000E+00  0.0000E+00  0.0000E+00  0.0000E+00
         107  3.4316E+00  1.4478E+00  0.0000E+00  0.0000E+00  0.0000E+00  0.0000E+00  0.0000E+00  0.0000E+00  0.0000E+00  0.0000E+00
         107  3.2859E+00  1.4478E+00  0.0000E+00  0.0000E+00  0.0000E+00  0.0000E+00  0.0000E+00  0.0000E+00  0.0000E+00  0.0000E+00
  Element nb      COORD1      COORD2         S11         S22         S33         S12         E11         E22         E33         E12
         108  3.4331E+00  1.5534E+00  0.0000E+00  0.0000E+00  0.0000E+00  0.0000E+00  0.0000E+00  0.0000E+00  0.0000E+00  0.0000E+00
         108  3.2874E+00  1.5534E+00  0.0000E+00  0.0000E+00  0.0000E+00  0.0000E+00  0.0000E+00  0.0000E+00  0.0000E+00  0.0000E+00
         108  3.4352E+00  1.6976E+00  0.0000E+00  0.0000E+00  0.0000E+00  0.0000E+00  0.0000E+00  0.0000E+00  0.0000E+00  0.0000E+00
         108  3.2897E+00  1.6977E+00  0.0000E+00  0.0000E+00  0.0000E+00  0.0000E+00  0.0000E+00  0.0000E+00  0.0000E+00  0.0000E+00
  Element nb      COORD1      COORD2         S11         S22         S33         S12         E11         E22         E33         E12
         109  3.4367E+00  1.8032E+00  0.0000E+00  0.0000E+00  0.0000E+00  0.0000E+00  0.0000E+00  0.0000E+00  0.0000E+00  0.0000E+00
         109  3.2914E+00  1.8033E+00  0.0000E+00  0.0000E+00  0.0000E+00  0.0000E+00  0.0000E+00  0.0000E+00  0.0000E+00  0.0000E+00
         109  3.4388E+00  1.9475E+00  0.0000E+00  0.0000E+00  0.0000E+00  0.0000E+00  0.0000E+00  0.0000E+00  0.0000E+00  0.0000E+00
         109  3.2937E+00  1.9475E+00  0.0000E+00  0.0000E+00  0.0000E+00  0.0000E+00  0.0000E+00  0.0000E+00  0.0000E+00  0.0000E+00
  Element nb      COORD1      COORD2         S11         S22         S33         S12         E11         E22         E33         E12
         110  3.4404E+00  2.0531E+00  0.0000E+00  0.0000E+00  0.0000E+00  0.0000E+00  0.0000E+00  0.0000E+00  0.0000E+00  0.0000E+00
         110  3.2955E+00  2.0531E+00  0.0000E+00  0.0000E+00  0.0000E+00  0.0000E+00  0.0000E+00  0.0000E+00  0.0000E+00  0.0000E+00
         110  3.4426E+00  2.1973E+00  0.0000E+00  0.0000E+00  0.0000E+00  0.0000E+00  0.0000E+00  0.0000E+00  0.0000E+00  0.0000E+00
         110  3.2978E+00  2.1974E+00  0.0000E+00  0.0000E+00  0.0000E+00  0.0000E+00  0.0000E+00  0.0000E+00  0.0000E+00  0.0000E+00
  Element nb      COORD1      COORD2         S11         S22         S33         S12         E11         E22         E33         E12
         111  3.4442E+00  2.3029E+00  0.0000E+00  0.0000E+00  0.0000E+00  0.0000E+00  0.0000E+00  0.0000E+00  0.0000E+00  0.0000E+00
         111  3.2996E+00  2.3030E+00  0.0000E+00  0.0000E+00  0.0000E+00  0.0000E+00  0.0000E+00  0.0000E+00  0.0000E+00  0.0000E+00
         111  3.4464E+00  2.4472E+00  0.0000E+00  0.0000E+00  0.0000E+00  0.0000E+00  0.0000E+00  0.0000E+00  0.0000E+00  0.0000E+00
         111  3.3020E+00  2.4472E+00  0.0000E+00  0.0000E+00  0.0000E+00  0.0000E+00  0.0000E+00  0.0000E+00  0.0000E+00  0.0000E+00
  Element nb      COORD1      COORD2         S11         S22         S33         S12         E11         E22         E33         E12
         112  3.1801E+00  3.0348E-01  0.0000E+00  0.0000E+00  0.0000E+00  0.0000E+00  0.0000E+00  0.0000E+00  0.0000E+00  0.0000E+00
         112  3.0344E+00  3.0353E-01  0.0000E+00  0.0000E+00  0.0000E+00  0.0000E+00  0.0000E+00  0.0000E+00  0.0000E+00  0.0000E+00
         112  3.1755E+00  4.4800E-01  0.0000E+00  0.0000E+00  0.0000E+00  0.0000E+00  0.0000E+00  0.0000E+00  0.0000E+00  0.0000E+00
         112  3.0295E+00  4.4806E-01  0.0000E+00  0.0000E+00  0.0000E+00  0.0000E+00  0.0000E+00  0.0000E+00  0.0000E+00  0.0000E+00
  Element nb      COORD1      COORD2         S11         S22         S33         S12         E11         E22         E33         E12
         113  3.1734E+00  5.5374E-01  0.0000E+00  0.0000E+00  0.0000E+00  0.0000E+00  0.0000E+00  0.0000E+00  0.0000E+00  0.0000E+00
         113  3.0272E+00  5.5381E-01  0.0000E+00  0.0000E+00  0.0000E+00  0.0000E+00  0.0000E+00  0.0000E+00  0.0000E+00  0.0000E+00
         113  3.1722E+00  6.9812E-01  0.0000E+00  0.0000E+00  0.0000E+00  0.0000E+00  0.0000E+00  0.0000E+00  0.0000E+00  0.0000E+00
         113  3.0259E+00  6.9820E-01  0.0000E+00  0.0000E+00  0.0000E+00  0.0000E+00  0.0000E+00  0.0000E+00  0.0000E+00  0.0000E+00
  Element nb      COORD1      COORD2         S11         S22         S33         S12         E11         E22         E33         E12
         114  3.1721E+00  8.0379E-01  0.0000E+00  0.0000E+00  0.0000E+00  0.0000E+00  0.0000E+00  0.0000E+00  0.0000E+00  0.0000E+00
         114  3.0257E+00  8.0387E-01  0.0000E+00  0.0000E+00  0.0000E+00  0.0000E+00  0.0000E+00  0.0000E+00  0.0000E+00  0.0000E+00
         114  3.1728E+00  9.4810E-01  0.0000E+00  0.0000E+00  0.0000E+00  0.0000E+00  0.0000E+00  0.0000E+00  0.0000E+00  0.0000E+00
         114  3.0266E+00  9.4817E-01  0.0000E+00  0.0000E+00  0.0000E+00  0.0000E+00  0.0000E+00  0.0000E+00  0.0000E+00  0.0000E+00
  Element nb      COORD1      COORD2         S11         S22         S33         S12         E11         E22         E33         E12
         115  3.1737E+00  1.0537E+00  0.0000E+00  0.0000E+00  0.0000E+00  0.0000E+00  0.0000E+00  0.0000E+00  0.0000E+00  0.0000E+00
         115  3.0275E+00  1.0538E+00  0.0000E+00  0.0000E+00  0.0000E+00  0.0000E+00  0.0000E+00  0.0000E+00  0.0000E+00  0.0000E+00
         115  3.1755E+00  1.1980E+00  0.0000E+00  0.0000E+00  0.0000E+00  0.0000E+00  0.0000E+00  0.0000E+00  0.0000E+00  0.0000E+00
         115  3.0294E+00  1.1981E+00  0.0000E+00  0.0000E+00  0.0000E+00  0.0000E+00  0.0000E+00  0.0000E+00  0.0000E+00  0.0000E+00
  Element nb      COORD1      COORD2         S11         S22         S33         S12         E11         E22         E33         E12
         116  3.1769E+00  1.3036E+00  0.0000E+00  0.0000E+00  0.0000E+00  0.0000E+00  0.0000E+00  0.0000E+00  0.0000E+00  0.0000E+00
         116  3.0310E+00  1.3037E+00  0.0000E+00  0.0000E+00  0.0000E+00  0.0000E+00  0.0000E+00  0.0000E+00  0.0000E+00  0.0000E+00
         116  3.1791E+00  1.4479E+00  0.0000E+00  0.0000E+00  0.0000E+00  0.0000E+00  0.0000E+00  0.0000E+00  0.0000E+00  0.0000E+00
         116  3.0334E+00  1.4479E+00  0.0000E+00  0.0000E+00  0.0000E+00  0.0000E+00  0.0000E+00  0.0000E+00  0.0000E+00  0.0000E+00
  Element nb      COORD1      COORD2         S11         S22         S33         S12         E11         E22         E33         E12
         117  3.1808E+00  1.5535E+00  0.0000E+00  0.0000E+00  0.0000E+00  0.0000E+00  0.0000E+00  0.0000E+00  0.0000E+00  0.0000E+00
         117  3.0352E+00  1.5535E+00  0.0000E+00  0.0000E+00  0.0000E+00  0.0000E+00  0.0000E+00  0.0000E+00  0.0000E+00  0.0000E+00
         117  3.1832E+00  1.6977E+00  0.0000E+00  0.0000E+00  0.0000E+00  0.0000E+00  0.0000E+00  0.0000E+00  0.0000E+00  0.0000E+00
         117  3.0378E+00  1.6977E+00  0.0000E+00  0.0000E+00  0.0000E+00  0.0000E+00  0.0000E+00  0.0000E+00  0.0000E+00  0.0000E+00
  Element nb      COORD1      COORD2         S11         S22         S33         S12         E11         E22         E33         E12
         118  3.1850E+00  1.8033E+00  0.0000E+00  0.0000E+00  0.0000E+00  0.0000E+00  0.0000E+00  0.0000E+00  0.0000E+00  0.0000E+00
         118  3.0397E+00  1.8033E+00  0.0000E+00  0.0000E+00  0.0000E+00  0.0000E+00  0.0000E+00  0.0000E+00  0.0000E+00  0.0000E+00
         118  3.1875E+00  1.9475E+00  0.0000E+00  0.0000E+00  0.0000E+00  0.0000E+00  0.0000E+00  0.0000E+00  0.0000E+00  0.0000E+00
         118  3.0424E+00  1.9476E+00  0.0000E+00  0.0000E+00  0.0000E+00  0.0000E+00  0.0000E+00  0.0000E+00  0.0000E+00  0.0000E+00
  Element nb      COORD1      COORD2         S11         S22         S33         S12         E11         E22         E33         E12
         119  3.1893E+00  2.0531E+00  0.0000E+00  0.0000E+00  0.0000E+00  0.0000E+00  0.0000E+00  0.0000E+00  0.0000E+00  0.0000E+00
         119  3.0444E+00  2.0532E+00  0.0000E+00  0.0000E+00  0.0000E+00  0.0000E+00  0.0000E+00  0.0000E+00  0.0000E+00  0.0000E+00
         119  3.1919E+00  2.1974E+00  0.0000E+00  0.0000E+00  0.0000E+00  0.0000E+00  0.0000E+00  0.0000E+00  0.0000E+00  0.0000E+00
         119  3.0471E+00  2.1974E+00  0.0000E+00  0.0000E+00  0.0000E+00  0.0000E+00  0.0000E+00  0.0000E+00  0.0000E+00  0.0000E+00
  Element nb      COORD1      COORD2         S11         S22         S33         S12         E11         E22         E33         E12
         120  3.1937E+00  2.3030E+00  0.0000E+00  0.0000E+00  0.0000E+00  0.0000E+00  0.0000E+00  0.0000E+00  0.0000E+00  0.0000E+00
         120  3.0491E+00  2.3030E+00  0.0000E+00  0.0000E+00  0.0000E+00  0.0000E+00  0.0000E+00  0.0000E+00  0.0000E+00  0.0000E+00
         120  3.1962E+00  2.4472E+00  0.0000E+00  0.0000E+00  0.0000E+00  0.0000E+00  0.0000E+00  0.0000E+00  0.0000E+00  0.0000E+00
         120  3.0518E+00  2.4472E+00  0.0000E+00  0.0000E+00  0.0000E+00  0.0000E+00  0.0000E+00  0.0000E+00  0.0000E+00  0.0000E+00
  Element nb      COORD1      COORD2         S11         S22         S33         S12         E11         E22         E33         E12
         121  2.9278E+00  3.0357E-01  0.0000E+00  0.0000E+00  0.0000E+00  0.0000E+00  0.0000E+00  0.0000E+00  0.0000E+00  0.0000E+00
         121  2.7822E+00  3.0362E-01  0.0000E+00  0.0000E+00  0.0000E+00  0.0000E+00  0.0000E+00  0.0000E+00  0.0000E+00  0.0000E+00
         121  2.9226E+00  4.4811E-01  0.0000E+00  0.0000E+00  0.0000E+00  0.0000E+00  0.0000E+00  0.0000E+00  0.0000E+00  0.0000E+00
         121  2.7766E+00  4.4817E-01  0.0000E+00  0.0000E+00  0.0000E+00  0.0000E+00  0.0000E+00  0.0000E+00  0.0000E+00  0.0000E+00
  Element nb      COORD1      COORD2         S11         S22         S33         S12         E11         E22         E33         E12
         122  2.9202E+00  5.5386E-01  0.0000E+00  0.0000E+00  0.0000E+00  0.0000E+00  0.0000E+00  0.0000E+00  0.0000E+00  0.0000E+00
         122  2.7740E+00  5.5393E-01  0.0000E+00  0.0000E+00  0.0000E+00  0.0000E+00  0.0000E+00  0.0000E+00  0.0000E+00  0.0000E+00
         122  2.9188E+00  6.9825E-01  0.0000E+00  0.0000E+00  0.0000E+00  0.0000E+00  0.0000E+00  0.0000E+00  0.0000E+00  0.0000E+00
         122  2.7725E+00  6.9833E-01  0.0000E+00  0.0000E+00  0.0000E+00  0.0000E+00  0.0000E+00  0.0000E+00  0.0000E+00  0.0000E+00
  Element nb      COORD1      COORD2         S11         S22         S33         S12         E11         E22         E33         E12
         123  2.9186E+00  8.0392E-01  0.0000E+00  0.0000E+00  0.0000E+00  0.0000E+00  0.0000E+00  0.0000E+00  0.0000E+00  0.0000E+00
         123  2.7723E+00  8.0400E-01  0.0000E+00  0.0000E+00  0.0000E+00  0.0000E+00  0.0000E+00  0.0000E+00  0.0000E+00  0.0000E+00
         123  2.9195E+00  9.4823E-01  0.0000E+00  0.0000E+00  0.0000E+00  0.0000E+00  0.0000E+00  0.0000E+00  0.0000E+00  0.0000E+00
         123  2.7732E+00  9.4830E-01  0.0000E+00  0.0000E+00  0.0000E+00  0.0000E+00  0.0000E+00  0.0000E+00  0.0000E+00  0.0000E+00
  Element nb      COORD1      COORD2         S11         S22         S33         S12         E11         E22         E33         E12
         124  2.9205E+00  1.0538E+00  0.0000E+00  0.0000E+00  0.0000E+00  0.0000E+00  0.0000E+00  0.0000E+00  0.0000E+00  0.0000E+00
         124  2.7743E+00  1.0539E+00  0.0000E+00  0.0000E+00  0.0000E+00  0.0000E+00  0.0000E+00  0.0000E+00  0.0000E+00  0.0000E+00
         124  2.9225E+00  1.1981E+00  0.0000E+00  0.0000E+00  0.0000E+00  0.0000E+00  0.0000E+00  0.0000E+00  0.0000E+00  0.0000E+00
         124  2.7765E+00  1.1982E+00  0.0000E+00  0.0000E+00  0.0000E+00  0.0000E+00  0.0000E+00  0.0000E+00  0.0000E+00  0.0000E+00
  Element nb      COORD1      COORD2         S11         S22         S33         S12         E11         E22         E33         E12
         125  2.9241E+00  1.3037E+00  0.0000E+00  0.0000E+00  0.0000E+00  0.0000E+00  0.0000E+00  0.0000E+00  0.0000E+00  0.0000E+00
         125  2.7782E+00  1.3038E+00  0.0000E+00  0.0000E+00  0.0000E+00  0.0000E+00  0.0000E+00  0.0000E+00  0.0000E+00  0.0000E+00
         125  2.9267E+00  1.4480E+00  0.0000E+00  0.0000E+00  0.0000E+00  0.0000E+00  0.0000E+00  0.0000E+00  0.0000E+00  0.0000E+00
         125  2.7809E+00  1.4480E+00  0.0000E+00  0.0000E+00  0.0000E+00  0.0000E+00  0.0000E+00  0.0000E+00  0.0000E+00  0.0000E+00
  Element nb      COORD1      COORD2         S11         S22         S33         S12         E11         E22         E33         E12
         126  2.9286E+00  1.5535E+00  0.0000E+00  0.0000E+00  0.0000E+00  0.0000E+00  0.0000E+00  0.0000E+00  0.0000E+00  0.0000E+00
         126  2.7829E+00  1.5536E+00  0.0000E+00  0.0000E+00  0.0000E+00  0.0000E+00  0.0000E+00  0.0000E+00  0.0000E+00  0.0000E+00
         126  2.9313E+00  1.6978E+00  0.0000E+00  0.0000E+00  0.0000E+00  0.0000E+00  0.0000E+00  0.0000E+00  0.0000E+00  0.0000E+00
         126  2.7859E+00  1.6978E+00  0.0000E+00  0.0000E+00  0.0000E+00  0.0000E+00  0.0000E+00  0.0000E+00  0.0000E+00  0.0000E+00
  Element nb      COORD1      COORD2         S11         S22         S33         S12         E11         E22         E33         E12
         127  2.9333E+00  1.8034E+00  0.0000E+00  0.0000E+00  0.0000E+00  0.0000E+00  0.0000E+00  0.0000E+00  0.0000E+00  0.0000E+00
         127  2.7880E+00  1.8034E+00  0.0000E+00  0.0000E+00  0.0000E+00  0.0000E+00  0.0000E+00  0.0000E+00  0.0000E+00  0.0000E+00
         127  2.9362E+00  1.9476E+00  0.0000E+00  0.0000E+00  0.0000E+00  0.0000E+00  0.0000E+00  0.0000E+00  0.0000E+00  0.0000E+00
         127  2.7911E+00  1.9476E+00  0.0000E+00  0.0000E+00  0.0000E+00  0.0000E+00  0.0000E+00  0.0000E+00  0.0000E+00  0.0000E+00
  Element nb      COORD1      COORD2         S11         S22         S33         S12         E11         E22         E33         E12
         128  2.9383E+00  2.0532E+00  0.0000E+00  0.0000E+00  0.0000E+00  0.0000E+00  0.0000E+00  0.0000E+00  0.0000E+00  0.0000E+00
         128  2.7933E+00  2.0532E+00  0.0000E+00  0.0000E+00  0.0000E+00  0.0000E+00  0.0000E+00  0.0000E+00  0.0000E+00  0.0000E+00
         128  2.9411E+00  2.1974E+00  0.0000E+00  0.0000E+00  0.0000E+00  0.0000E+00  0.0000E+00  0.0000E+00  0.0000E+00  0.0000E+00
         128  2.7964E+00  2.1974E+00  0.0000E+00  0.0000E+00  0.0000E+00  0.0000E+00  0.0000E+00  0.0000E+00  0.0000E+00  0.0000E+00
  Element nb      COORD1      COORD2         S11         S22         S33         S12         E11         E22         E33         E12
         129  2.9432E+00  2.3030E+00  0.0000E+00  0.0000E+00  0.0000E+00  0.0000E+00  0.0000E+00  0.0000E+00  0.0000E+00  0.0000E+00
         129  2.7986E+00  2.3030E+00  0.0000E+00  0.0000E+00  0.0000E+00  0.0000E+00  0.0000E+00  0.0000E+00  0.0000E+00  0.0000E+00
         129  2.9461E+00  2.4472E+00  0.0000E+00  0.0000E+00  0.0000E+00  0.0000E+00  0.0000E+00  0.0000E+00  0.0000E+00  0.0000E+00
         129  2.8017E+00  2.4472E+00  0.0000E+00  0.0000E+00  0.0000E+00  0.0000E+00  0.0000E+00  0.0000E+00  0.0000E+00  0.0000E+00
  Element nb      COORD1      COORD2         S11         S22         S33         S12         E11         E22         E33         E12
         130  2.6755E+00  3.0366E-01  0.0000E+00  0.0000E+00  0.0000E+00  0.0000E+00  0.0000E+00  0.0000E+00  0.0000E+00  0.0000E+00
         130  2.5299E+00  3.0371E-01  0.0000E+00  0.0000E+00  0.0000E+00  0.0000E+00  0.0000E+00  0.0000E+00  0.0000E+00  0.0000E+00
         130  2.6697E+00  4.4822E-01  0.0000E+00  0.0000E+00  0.0000E+00  0.0000E+00  0.0000E+00  0.0000E+00  0.0000E+00  0.0000E+00
         130  2.5237E+00  4.4828E-01  0.0000E+00  0.0000E+00  0.0000E+00  0.0000E+00  0.0000E+00  0.0000E+00  0.0000E+00  0.0000E+00
  Element nb      COORD1      COORD2         S11         S22         S33         S12         E11         E22         E33         E12
         131  2.6670E+00  5.5398E-01  0.0000E+00  0.0000E+00  0.0000E+00  0.0000E+00  0.0000E+00  0.0000E+00  0.0000E+00  0.0000E+00
         131  2.5208E+00  5.5405E-01  0.0000E+00  0.0000E+00  0.0000E+00  0.0000E+00  0.0000E+00  0.0000E+00  0.0000E+00  0.0000E+00
         131  2.6655E+00  6.9838E-01  0.0000E+00  0.0000E+00  0.0000E+00  0.0000E+00  0.0000E+00  0.0000E+00  0.0000E+00  0.0000E+00
         131  2.5192E+00  6.9845E-01  0.0000E+00  0.0000E+00  0.0000E+00  0.0000E+00  0.0000E+00  0.0000E+00  0.0000E+00  0.0000E+00
  Element nb      COORD1      COORD2         S11         S22         S33         S12         E11         E22         E33         E12
         132  2.6652E+00  8.0405E-01  0.0000E+00  0.0000E+00  0.0000E+00  0.0000E+00  0.0000E+00  0.0000E+00  0.0000E+00  0.0000E+00
         132  2.5189E+00  8.0413E-01  0.0000E+00  0.0000E+00  0.0000E+00  0.0000E+00  0.0000E+00  0.0000E+00  0.0000E+00  0.0000E+00
         132  2.6662E+00  9.4835E-01  0.0000E+00  0.0000E+00  0.0000E+00  0.0000E+00  0.0000E+00  0.0000E+00  0.0000E+00  0.0000E+00
         132  2.5199E+00  9.4843E-01  0.0000E+00  0.0000E+00  0.0000E+00  0.0000E+00  0.0000E+00  0.0000E+00  0.0000E+00  0.0000E+00
  Element nb      COORD1      COORD2         S11         S22         S33         S12         E11         E22         E33         E12
         133  2.6673E+00  1.0540E+00  0.0000E+00  0.0000E+00  0.0000E+00  0.0000E+00  0.0000E+00  0.0000E+00  0.0000E+00  0.0000E+00
         133  2.5211E+00  1.0540E+00  0.0000E+00  0.0000E+00  0.0000E+00  0.0000E+00  0.0000E+00  0.0000E+00  0.0000E+00  0.0000E+00
         133  2.6695E+00  1.1982E+00  0.0000E+00  0.0000E+00  0.0000E+00  0.0000E+00  0.0000E+00  0.0000E+00  0.0000E+00  0.0000E+00
         133  2.5235E+00  1.1983E+00  0.0000E+00  0.0000E+00  0.0000E+00  0.0000E+00  0.0000E+00  0.0000E+00  0.0000E+00  0.0000E+00
  Element nb      COORD1      COORD2         S11         S22         S33         S12         E11         E22         E33         E12
         134  2.6714E+00  1.3038E+00  0.0000E+00  0.0000E+00  0.0000E+00  0.0000E+00  0.0000E+00  0.0000E+00  0.0000E+00  0.0000E+00
         134  2.5254E+00  1.3039E+00  0.0000E+00  0.0000E+00  0.0000E+00  0.0000E+00  0.0000E+00  0.0000E+00  0.0000E+00  0.0000E+00
         134  2.6742E+00  1.4480E+00  0.0000E+00  0.0000E+00  0.0000E+00  0.0000E+00  0.0000E+00  0.0000E+00  0.0000E+00  0.0000E+00
         134  2.5284E+00  1.4481E+00  0.0000E+00  0.0000E+00  0.0000E+00  0.0000E+00  0.0000E+00  0.0000E+00  0.0000E+00  0.0000E+00
  Element nb      COORD1      COORD2         S11         S22         S33         S12         E11         E22         E33         E12
         135  2.6763E+00  1.5536E+00  0.0000E+00  0.0000E+00  0.0000E+00  0.0000E+00  0.0000E+00  0.0000E+00  0.0000E+00  0.0000E+00
         135  2.5307E+00  1.5537E+00  0.0000E+00  0.0000E+00  0.0000E+00  0.0000E+00  0.0000E+00  0.0000E+00  0.0000E+00  0.0000E+00
         135  2.6794E+00  1.6978E+00  0.0000E+00  0.0000E+00  0.0000E+00  0.0000E+00  0.0000E+00  0.0000E+00  0.0000E+00  0.0000E+00
         135  2.5339E+00  1.6979E+00  0.0000E+00  0.0000E+00  0.0000E+00  0.0000E+00  0.0000E+00  0.0000E+00  0.0000E+00  0.0000E+00
  Element nb      COORD1      COORD2         S11         S22         S33         S12         E11         E22         E33         E12
         136  2.6817E+00  1.8034E+00  0.0000E+00  0.0000E+00  0.0000E+00  0.0000E+00  0.0000E+00  0.0000E+00  0.0000E+00  0.0000E+00
         136  2.5364E+00  1.8035E+00  0.0000E+00  0.0000E+00  0.0000E+00  0.0000E+00  0.0000E+00  0.0000E+00  0.0000E+00  0.0000E+00
         136  2.6848E+00  1.9476E+00  0.0000E+00  0.0000E+00  0.0000E+00  0.0000E+00  0.0000E+00  0.0000E+00  0.0000E+00  0.0000E+00
         136  2.5397E+00  1.9477E+00  0.0000E+00  0.0000E+00  0.0000E+00  0.0000E+00  0.0000E+00  0.0000E+00  0.0000E+00  0.0000E+00
  Element nb      COORD1      COORD2         S11         S22         S33         S12         E11         E22         E33         E12
         137  2.6872E+00  2.0532E+00  0.0000E+00  0.0000E+00  0.0000E+00  0.0000E+00  0.0000E+00  0.0000E+00  0.0000E+00  0.0000E+00
         137  2.5422E+00  2.0532E+00  0.0000E+00  0.0000E+00  0.0000E+00  0.0000E+00  0.0000E+00  0.0000E+00  0.0000E+00  0.0000E+00
         137  2.6904E+00  2.1974E+00  0.0000E+00  0.0000E+00  0.0000E+00  0.0000E+00  0.0000E+00  0.0000E+00  0.0000E+00  0.0000E+00
         137  2.5456E+00  2.1974E+00  0.0000E+00  0.0000E+00  0.0000E+00  0.0000E+00  0.0000E+00  0.0000E+00  0.0000E+00  0.0000E+00
  Element nb      COORD1      COORD2         S11         S22         S33         S12         E11         E22         E33         E12
         138  2.6928E+00  2.3030E+00  0.0000E+00  0.0000E+00  0.0000E+00  0.0000E+00  0.0000E+00  0.0000E+00  0.0000E+00  0.0000E+00
         138  2.5481E+00  2.3030E+00  0.0000E+00  0.0000E+00  0.0000E+00  0.0000E+00  0.0000E+00  0.0000E+00  0.0000E+00  0.0000E+00
         138  2.6960E+00  2.4472E+00  0.0000E+00  0.0000E+00  0.0000E+00  0.0000E+00  0.0000E+00  0.0000E+00  0.0000E+00  0.0000E+00
         138  2.5516E+00  2.4472E+00  0.0000E+00  0.0000E+00  0.0000E+00  0.0000E+00  0.0000E+00  0.0000E+00  0.0000E+00  0.0000E+00
  Element nb      COORD1      COORD2         S11         S22         S33         S12         E11         E22         E33         E12
         139  2.4232E+00  3.0375E-01  0.0000E+00  0.0000E+00  0.0000E+00  0.0000E+00  0.0000E+00  0.0000E+00  0.0000E+00  0.0000E+00
         139  2.2776E+00  3.0380E-01  0.0000E+00  0.0000E+00  0.0000E+00  0.0000E+00  0.0000E+00  0.0000E+00  0.0000E+00  0.0000E+00
         139  2.4168E+00  4.4833E-01  0.0000E+00  0.0000E+00  0.0000E+00  0.0000E+00  0.0000E+00  0.0000E+00  0.0000E+00  0.0000E+00
         139  2.2708E+00  4.4839E-01  0.0000E+00  0.0000E+00  0.0000E+00  0.0000E+00  0.0000E+00  0.0000E+00  0.0000E+00  0.0000E+00
  Element nb      COORD1      COORD2         S11         S22         S33         S12         E11         E22         E33         E12
         140  2.4138E+00  5.5411E-01  0.0000E+00  0.0000E+00  0.0000E+00  0.0000E+00  0.0000E+00  0.0000E+00  0.0000E+00  0.0000E+00
         140  2.2676E+00  5.5418E-01  0.0000E+00  0.0000E+00  0.0000E+00  0.0000E+00  0.0000E+00  0.0000E+00  0.0000E+00  0.0000E+00
         140  2.4121E+00  6.9851E-01  0.0000E+00  0.0000E+00  0.0000E+00  0.0000E+00  0.0000E+00  0.0000E+00  0.0000E+00  0.0000E+00
         140  2.2658E+00  6.9858E-01  0.0000E+00  0.0000E+00  0.0000E+00  0.0000E+00  0.0000E+00  0.0000E+00  0.0000E+00  0.0000E+00
  Element nb      COORD1      COORD2         S11         S22         S33         S12         E11         E22         E33         E12
         141  2.4118E+00  8.0418E-01  0.0000E+00  0.0000E+00  0.0000E+00  0.0000E+00  0.0000E+00  0.0000E+00  0.0000E+00  0.0000E+00
         141  2.2655E+00  8.0426E-01  0.0000E+00  0.0000E+00  0.0000E+00  0.0000E+00  0.0000E+00  0.0000E+00  0.0000E+00  0.0000E+00
         141  2.4128E+00  9.4848E-01  0.0000E+00  0.0000E+00  0.0000E+00  0.0000E+00  0.0000E+00  0.0000E+00  0.0000E+00  0.0000E+00
         141  2.2666E+00  9.4855E-01  0.0000E+00  0.0000E+00  0.0000E+00  0.0000E+00  0.0000E+00  0.0000E+00  0.0000E+00  0.0000E+00
  Element nb      COORD1      COORD2         S11         S22         S33         S12         E11         E22         E33         E12
         142  2.4141E+00  1.0541E+00  0.0000E+00  0.0000E+00  0.0000E+00  0.0000E+00  0.0000E+00  0.0000E+00  0.0000E+00  0.0000E+00
         142  2.2679E+00  1.0542E+00  0.0000E+00  0.0000E+00  0.0000E+00  0.0000E+00  0.0000E+00  0.0000E+00  0.0000E+00  0.0000E+00
         142  2.4166E+00  1.1983E+00  0.0000E+00  0.0000E+00  0.0000E+00  0.0000E+00  0.0000E+00  0.0000E+00  0.0000E+00  0.0000E+00
         142  2.2705E+00  1.1984E+00  0.0000E+00  0.0000E+00  0.0000E+00  0.0000E+00  0.0000E+00  0.0000E+00  0.0000E+00  0.0000E+00
  Element nb      COORD1      COORD2         S11         S22         S33         S12         E11         E22         E33         E12
         143  2.4186E+00  1.3039E+00  0.0000E+00  0.0000E+00  0.0000E+00  0.0000E+00  0.0000E+00  0.0000E+00  0.0000E+00  0.0000E+00
         143  2.2726E+00  1.3040E+00  0.0000E+00  0.0000E+00  0.0000E+00  0.0000E+00  0.0000E+00  0.0000E+00  0.0000E+00  0.0000E+00
         143  2.4217E+00  1.4481E+00  0.0000E+00  0.0000E+00  0.0000E+00  0.0000E+00  0.0000E+00  0.0000E+00  0.0000E+00  0.0000E+00
         143  2.2759E+00  1.4482E+00  0.0000E+00  0.0000E+00  0.0000E+00  0.0000E+00  0.0000E+00  0.0000E+00  0.0000E+00  0.0000E+00
  Element nb      COORD1      COORD2         S11         S22         S33         S12         E11         E22         E33         E12
         144  2.4241E+00  1.5537E+00  0.0000E+00  0.0000E+00  0.0000E+00  0.0000E+00  0.0000E+00  0.0000E+00  0.0000E+00  0.0000E+00
         144  2.2784E+00  1.5538E+00  0.0000E+00  0.0000E+00  0.0000E+00  0.0000E+00  0.0000E+00  0.0000E+00  0.0000E+00  0.0000E+00
         144  2.4275E+00  1.6979E+00  0.0000E+00  0.0000E+00  0.0000E+00  0.0000E+00  0.0000E+00  0.0000E+00  0.0000E+00  0.0000E+00
         144  2.2820E+00  1.6980E+00  0.0000E+00  0.0000E+00  0.0000E+00  0.0000E+00  0.0000E+00  0.0000E+00  0.0000E+00  0.0000E+00
  Element nb      COORD1      COORD2         S11         S22         S33         S12         E11         E22         E33         E12
         145  2.4300E+00  1.8035E+00  0.0000E+00  0.0000E+00  0.0000E+00  0.0000E+00  0.0000E+00  0.0000E+00  0.0000E+00  0.0000E+00
         145  2.2847E+00  1.8035E+00  0.0000E+00  0.0000E+00  0.0000E+00  0.0000E+00  0.0000E+00  0.0000E+00  0.0000E+00  0.0000E+00
         145  2.4335E+00  1.9477E+00  0.0000E+00  0.0000E+00  0.0000E+00  0.0000E+00  0.0000E+00  0.0000E+00  0.0000E+00  0.0000E+00
         145  2.2884E+00  1.9477E+00  0.0000E+00  0.0000E+00  0.0000E+00  0.0000E+00  0.0000E+00  0.0000E+00  0.0000E+00  0.0000E+00
  Element nb      COORD1      COORD2         S11         S22         S33         S12         E11         E22         E33         E12
         146  2.4361E+00  2.0533E+00  0.0000E+00  0.0000E+00  0.0000E+00  0.0000E+00  0.0000E+00  0.0000E+00  0.0000E+00  0.0000E+00
         146  2.2911E+00  2.0533E+00  0.0000E+00  0.0000E+00  0.0000E+00  0.0000E+00  0.0000E+00  0.0000E+00  0.0000E+00  0.0000E+00
         146  2.4397E+00  2.1975E+00  0.0000E+00  0.0000E+00  0.0000E+00  0.0000E+00  0.0000E+00  0.0000E+00  0.0000E+00  0.0000E+00
         146  2.2949E+00  2.1975E+00  0.0000E+00  0.0000E+00  0.0000E+00  0.0000E+00  0.0000E+00  0.0000E+00  0.0000E+00  0.0000E+00
  Element nb      COORD1      COORD2         S11         S22         S33         S12         E11         E22         E33         E12
         147  2.4423E+00  2.3030E+00  0.0000E+00  0.0000E+00  0.0000E+00  0.0000E+00  0.0000E+00  0.0000E+00  0.0000E+00  0.0000E+00
         147  2.2977E+00  2.3030E+00  0.0000E+00  0.0000E+00  0.0000E+00  0.0000E+00  0.0000E+00  0.0000E+00  0.0000E+00  0.0000E+00
         147  2.4459E+00  2.4472E+00  0.0000E+00  0.0000E+00  0.0000E+00  0.0000E+00  0.0000E+00  0.0000E+00  0.0000E+00  0.0000E+00
         147  2.3014E+00  2.4472E+00  0.0000E+00  0.0000E+00  0.0000E+00  0.0000E+00  0.0000E+00  0.0000E+00  0.0000E+00  0.0000E+00
  Element nb      COORD1      COORD2         S11         S22         S33         S12         E11         E22         E33         E12
         148  2.1710E+00  3.0383E-01  0.0000E+00  0.0000E+00  0.0000E+00  0.0000E+00  0.0000E+00  0.0000E+00  0.0000E+00  0.0000E+00
         148  2.0253E+00  3.0388E-01  0.0000E+00  0.0000E+00  0.0000E+00  0.0000E+00  0.0000E+00  0.0000E+00  0.0000E+00  0.0000E+00
         148  2.1639E+00  4.4844E-01  0.0000E+00  0.0000E+00  0.0000E+00  0.0000E+00  0.0000E+00  0.0000E+00  0.0000E+00  0.0000E+00
         148  2.0179E+00  4.4850E-01  0.0000E+00  0.0000E+00  0.0000E+00  0.0000E+00  0.0000E+00  0.0000E+00  0.0000E+00  0.0000E+00
  Element nb      COORD1      COORD2         S11         S22         S33         S12         E11         E22         E33         E12
         149  2.1606E+00  5.5423E-01  0.0000E+00  0.0000E+00  0.0000E+00  0.0000E+00  0.0000E+00  0.0000E+00  0.0000E+00  0.0000E+00
         149  2.0144E+00  5.5430E-01  0.0000E+00  0.0000E+00  0.0000E+00  0.0000E+00  0.0000E+00  0.0000E+00  0.0000E+00  0.0000E+00
         149  2.1587E+00  6.9864E-01  0.0000E+00  0.0000E+00  0.0000E+00  0.0000E+00  0.0000E+00  0.0000E+00  0.0000E+00  0.0000E+00
         149  2.0124E+00  6.9871E-01  0.0000E+00  0.0000E+00  0.0000E+00  0.0000E+00  0.0000E+00  0.0000E+00  0.0000E+00  0.0000E+00
  Element nb      COORD1      COORD2         S11         S22         S33         S12         E11         E22         E33         E12
         150  2.1584E+00  8.0431E-01  0.0000E+00  0.0000E+00  0.0000E+00  0.0000E+00  0.0000E+00  0.0000E+00  0.0000E+00  0.0000E+00
         150  2.0121E+00  8.0439E-01  0.0000E+00  0.0000E+00  0.0000E+00  0.0000E+00  0.0000E+00  0.0000E+00  0.0000E+00  0.0000E+00
         150  2.1595E+00  9.4861E-01  0.0000E+00  0.0000E+00  0.0000E+00  0.0000E+00  0.0000E+00  0.0000E+00  0.0000E+00  0.0000E+00
         150  2.0133E+00  9.4868E-01  0.0000E+00  0.0000E+00  0.0000E+00  0.0000E+00  0.0000E+00  0.0000E+00  0.0000E+00  0.0000E+00
  Element nb      COORD1      COORD2         S11         S22         S33         S12         E11         E22         E33         E12
         151  2.1609E+00  1.0542E+00  0.0000E+00  0.0000E+00  0.0000E+00  0.0000E+00  0.0000E+00  0.0000E+00  0.0000E+00  0.0000E+00
         151  2.0147E+00  1.0543E+00  0.0000E+00  0.0000E+00  0.0000E+00  0.0000E+00  0.0000E+00  0.0000E+00  0.0000E+00  0.0000E+00
         151  2.1636E+00  1.1985E+00  0.0000E+00  0.0000E+00  0.0000E+00  0.0000E+00  0.0000E+00  0.0000E+00  0.0000E+00  0.0000E+00
         151  2.0175E+00  1.1985E+00  0.0000E+00  0.0000E+00  0.0000E+00  0.0000E+00  0.0000E+00  0.0000E+00  0.0000E+00  0.0000E+00
  Element nb      COORD1      COORD2         S11         S22         S33         S12         E11         E22         E33         E12
         152  2.1658E+00  1.3040E+00  0.0000E+00  0.0000E+00  0.0000E+00  0.0000E+00  0.0000E+00  0.0000E+00  0.0000E+00  0.0000E+00
         152  2.0199E+00  1.3041E+00  0.0000E+00  0.0000E+00  0.0000E+00  0.0000E+00  0.0000E+00  0.0000E+00  0.0000E+00  0.0000E+00
         152  2.1692E+00  1.4482E+00  0.0000E+00  0.0000E+00  0.0000E+00  0.0000E+00  0.0000E+00  0.0000E+00  0.0000E+00  0.0000E+00
         152  2.0234E+00  1.4483E+00  0.0000E+00  0.0000E+00  0.0000E+00  0.0000E+00  0.0000E+00  0.0000E+00  0.0000E+00  0.0000E+00
  Element nb      COORD1      COORD2         S11         S22         S33         S12         E11         E22         E33         E12
         153  2.1718E+00  1.5538E+00  0.0000E+00  0.0000E+00  0.0000E+00  0.0000E+00  0.0000E+00  0.0000E+00  0.0000E+00  0.0000E+00
         153  2.0262E+00  1.5538E+00  0.0000E+00  0.0000E+00  0.0000E+00  0.0000E+00  0.0000E+00  0.0000E+00  0.0000E+00  0.0000E+00
         153  2.1755E+00  1.6980E+00  0.0000E+00  0.0000E+00  0.0000E+00  0.0000E+00  0.0000E+00  0.0000E+00  0.0000E+00  0.0000E+00
         153  2.0301E+00  1.6980E+00  0.0000E+00  0.0000E+00  0.0000E+00  0.0000E+00  0.0000E+00  0.0000E+00  0.0000E+00  0.0000E+00
  Element nb      COORD1      COORD2         S11         S22         S33         S12         E11         E22         E33         E12
         154  2.1783E+00  1.8036E+00  0.0000E+00  0.0000E+00  0.0000E+00  0.0000E+00  0.0000E+00  0.0000E+00  0.0000E+00  0.0000E+00
         154  2.0330E+00  1.8036E+00  0.0000E+00  0.0000E+00  0.0000E+00  0.0000E+00  0.0000E+00  0.0000E+00  0.0000E+00  0.0000E+00
         154  2.1822E+00  1.9477E+00  0.0000E+00  0.0000E+00  0.0000E+00  0.0000E+00  0.0000E+00  0.0000E+00  0.0000E+00  0.0000E+00
         154  2.0371E+00  1.9478E+00  0.0000E+00  0.0000E+00  0.0000E+00  0.0000E+00  0.0000E+00  0.0000E+00  0.0000E+00  0.0000E+00
  Element nb      COORD1      COORD2         S11         S22         S33         S12         E11         E22         E33         E12
         155  2.1850E+00  2.0533E+00  0.0000E+00  0.0000E+00  0.0000E+00  0.0000E+00  0.0000E+00  0.0000E+00  0.0000E+00  0.0000E+00
         155  2.0401E+00  2.0533E+00  0.0000E+00  0.0000E+00  0.0000E+00  0.0000E+00  0.0000E+00  0.0000E+00  0.0000E+00  0.0000E+00
         155  2.1889E+00  2.1975E+00  0.0000E+00  0.0000E+00  0.0000E+00  0.0000E+00  0.0000E+00  0.0000E+00  0.0000E+00  0.0000E+00
         155  2.0442E+00  2.1975E+00  0.0000E+00  0.0000E+00  0.0000E+00  0.0000E+00  0.0000E+00  0.0000E+00  0.0000E+00  0.0000E+00
  Element nb      COORD1      COORD2         S11         S22         S33         S12         E11         E22         E33         E12
         156  2.1918E+00  2.3030E+00  0.0000E+00  0.0000E+00  0.0000E+00  0.0000E+00  0.0000E+00  0.0000E+00  0.0000E+00  0.0000E+00
         156  2.0472E+00  2.3030E+00  0.0000E+00  0.0000E+00  0.0000E+00  0.0000E+00  0.0000E+00  0.0000E+00  0.0000E+00  0.0000E+00
         156  2.1957E+00  2.4472E+00  0.0000E+00  0.0000E+00  0.0000E+00  0.0000E+00  0.0000E+00  0.0000E+00  0.0000E+00  0.0000E+00
         156  2.0513E+00  2.4472E+00  0.0000E+00  0.0000E+00  0.0000E+00  0.0000E+00  0.0000E+00  0.0000E+00  0.0000E+00  0.0000E+00
  Element nb      COORD1      COORD2         S11         S22         S33         S12         E11         E22         E33         E12
         157  1.9187E+00  3.0392E-01  0.0000E+00  0.0000E+00  0.0000E+00  0.0000E+00  0.0000E+00  0.0000E+00  0.0000E+00  0.0000E+00
         157  1.7730E+00  3.0397E-01  0.0000E+00  0.0000E+00  0.0000E+00  0.0000E+00  0.0000E+00  0.0000E+00  0.0000E+00  0.0000E+00
         157  1.9110E+00  4.4855E-01  0.0000E+00  0.0000E+00  0.0000E+00  0.0000E+00  0.0000E+00  0.0000E+00  0.0000E+00  0.0000E+00
         157  1.7650E+00  4.4861E-01  0.0000E+00  0.0000E+00  0.0000E+00  0.0000E+00  0.0000E+00  0.0000E+00  0.0000E+00  0.0000E+00
  Element nb      COORD1      COORD2         S11         S22         S33         S12         E11         E22         E33         E12
         158  1.9074E+00  5.5435E-01  0.0000E+00  0.0000E+00  0.0000E+00  0.0000E+00  0.0000E+00  0.0000E+00  0.0000E+00  0.0000E+00
         158  1.7612E+00  5.5442E-01  0.0000E+00  0.0000E+00  0.0000E+00  0.0000E+00  0.0000E+00  0.0000E+00  0.0000E+00  0.0000E+00
         158  1.9053E+00  6.9877E-01  0.0000E+00  0.0000E+00  0.0000E+00  0.0000E+00  0.0000E+00  0.0000E+00  0.0000E+00  0.0000E+00
         158  1.7590E+00  6.9884E-01  0.0000E+00  0.0000E+00  0.0000E+00  0.0000E+00  0.0000E+00  0.0000E+00  0.0000E+00  0.0000E+00
  Element nb      COORD1      COORD2         S11         S22         S33         S12         E11         E22         E33         E12
         159  1.9050E+00  8.0444E-01  0.0000E+00  0.0000E+00  0.0000E+00  0.0000E+00  0.0000E+00  0.0000E+00  0.0000E+00  0.0000E+00
         159  1.7587E+00  8.0452E-01  0.0000E+00  0.0000E+00  0.0000E+00  0.0000E+00  0.0000E+00  0.0000E+00  0.0000E+00  0.0000E+00
         159  1.9062E+00  9.4873E-01  0.0000E+00  0.0000E+00  0.0000E+00  0.0000E+00  0.0000E+00  0.0000E+00  0.0000E+00  0.0000E+00
         159  1.7599E+00  9.4881E-01  0.0000E+00  0.0000E+00  0.0000E+00  0.0000E+00  0.0000E+00  0.0000E+00  0.0000E+00  0.0000E+00
  Element nb      COORD1      COORD2         S11         S22         S33         S12         E11         E22         E33         E12
         160  1.9077E+00  1.0543E+00  0.0000E+00  0.0000E+00  0.0000E+00  0.0000E+00  0.0000E+00  0.0000E+00  0.0000E+00  0.0000E+00
         160  1.7615E+00  1.0544E+00  0.0000E+00  0.0000E+00  0.0000E+00  0.0000E+00  0.0000E+00  0.0000E+00  0.0000E+00  0.0000E+00
         160  1.9106E+00  1.1986E+00  0.0000E+00  0.0000E+00  0.0000E+00  0.0000E+00  0.0000E+00  0.0000E+00  0.0000E+00  0.0000E+00
         160  1.7646E+00  1.1986E+00  0.0000E+00  0.0000E+00  0.0000E+00  0.0000E+00  0.0000E+00  0.0000E+00  0.0000E+00  0.0000E+00
  Element nb      COORD1      COORD2         S11         S22         S33         S12         E11         E22         E33         E12
         161  1.9130E+00  1.3041E+00  0.0000E+00  0.0000E+00  0.0000E+00  0.0000E+00  0.0000E+00  0.0000E+00  0.0000E+00  0.0000E+00
         161  1.7671E+00  1.3042E+00  0.0000E+00  0.0000E+00  0.0000E+00  0.0000E+00  0.0000E+00  0.0000E+00  0.0000E+00  0.0000E+00
         161  1.9167E+00  1.4483E+00  0.0000E+00  0.0000E+00  0.0000E+00  0.0000E+00  0.0000E+00  0.0000E+00  0.0000E+00  0.0000E+00
         161  1.7710E+00  1.4484E+00  0.0000E+00  0.0000E+00  0.0000E+00  0.0000E+00  0.0000E+00  0.0000E+00  0.0000E+00  0.0000E+00
  Element nb      COORD1      COORD2         S11         S22         S33         S12         E11         E22         E33         E12
         162  1.9196E+00  1.5539E+00  0.0000E+00  0.0000E+00  0.0000E+00  0.0000E+00  0.0000E+00  0.0000E+00  0.0000E+00  0.0000E+00
         162  1.7739E+00  1.5539E+00  0.0000E+00  0.0000E+00  0.0000E+00  0.0000E+00  0.0000E+00  0.0000E+00  0.0000E+00  0.0000E+00
         162  1.9236E+00  1.6981E+00  0.0000E+00  0.0000E+00  0.0000E+00  0.0000E+00  0.0000E+00  0.0000E+00  0.0000E+00  0.0000E+00
         162  1.7782E+00  1.6981E+00  0.0000E+00  0.0000E+00  0.0000E+00  0.0000E+00  0.0000E+00  0.0000E+00  0.0000E+00  0.0000E+00
  Element nb      COORD1      COORD2         S11         S22         S33         S12         E11         E22         E33         E12
         163  1.9266E+00  1.8036E+00  0.0000E+00  0.0000E+00  0.0000E+00  0.0000E+00  0.0000E+00  0.0000E+00  0.0000E+00  0.0000E+00
         163  1.7813E+00  1.8037E+00  0.0000E+00  0.0000E+00  0.0000E+00  0.0000E+00  0.0000E+00  0.0000E+00  0.0000E+00  0.0000E+00
         163  1.9308E+00  1.9478E+00  0.0000E+00  0.0000E+00  0.0000E+00  0.0000E+00  0.0000E+00  0.0000E+00  0.0000E+00  0.0000E+00
         163  1.7857E+00  1.9478E+00  0.0000E+00  0.0000E+00  0.0000E+00  0.0000E+00  0.0000E+00  0.0000E+00  0.0000E+00  0.0000E+00
  Element nb      COORD1      COORD2         S11         S22         S33         S12         E11         E22         E33         E12
         164  1.9339E+00  2.0533E+00  0.0000E+00  0.0000E+00  0.0000E+00  0.0000E+00  0.0000E+00  0.0000E+00  0.0000E+00  0.0000E+00
         164  1.7890E+00  2.0534E+00  0.0000E+00  0.0000E+00  0.0000E+00  0.0000E+00  0.0000E+00  0.0000E+00  0.0000E+00  0.0000E+00
         164  1.9382E+00  2.1975E+00  0.0000E+00  0.0000E+00  0.0000E+00  0.0000E+00  0.0000E+00  0.0000E+00  0.0000E+00  0.0000E+00
         164  1.7934E+00  2.1975E+00  0.0000E+00  0.0000E+00  0.0000E+00  0.0000E+00  0.0000E+00  0.0000E+00  0.0000E+00  0.0000E+00
  Element nb      COORD1      COORD2         S11         S22         S33         S12         E11         E22         E33         E12
         165  1.9413E+00  2.3031E+00  0.0000E+00  0.0000E+00  0.0000E+00  0.0000E+00  0.0000E+00  0.0000E+00  0.0000E+00  0.0000E+00
         165  1.7967E+00  2.3031E+00  0.0000E+00  0.0000E+00  0.0000E+00  0.0000E+00  0.0000E+00  0.0000E+00  0.0000E+00  0.0000E+00
         165  1.9456E+00  2.4472E+00  0.0000E+00  0.0000E+00  0.0000E+00  0.0000E+00  0.0000E+00  0.0000E+00  0.0000E+00  0.0000E+00
         165  1.8012E+00  2.4472E+00  0.0000E+00  0.0000E+00  0.0000E+00  0.0000E+00  0.0000E+00  0.0000E+00  0.0000E+00  0.0000E+00
  Element nb      COORD1      COORD2         S11         S22         S33         S12         E11         E22         E33         E12
         166  1.6665E+00  3.0410E-01  0.0000E+00  0.0000E+00  0.0000E+00  0.0000E+00  0.0000E+00  0.0000E+00  0.0000E+00  0.0000E+00
         166  1.5210E+00  3.0440E-01  0.0000E+00  0.0000E+00  0.0000E+00  0.0000E+00  0.0000E+00  0.0000E+00  0.0000E+00  0.0000E+00
         166  1.6582E+00  4.4884E-01  0.0000E+00  0.0000E+00  0.0000E+00  0.0000E+00  0.0000E+00  0.0000E+00  0.0000E+00  0.0000E+00
         166  1.5125E+00  4.4939E-01  0.0000E+00  0.0000E+00  0.0000E+00  0.0000E+00  0.0000E+00  0.0000E+00  0.0000E+00  0.0000E+00
  Element nb      COORD1      COORD2         S11         S22         S33         S12         E11         E22         E33         E12
         167  1.6544E+00  5.5470E-01  0.0000E+00  0.0000E+00  0.0000E+00  0.0000E+00  0.0000E+00  0.0000E+00  0.0000E+00  0.0000E+00
         167  1.5085E+00  5.5541E-01  0.0000E+00  0.0000E+00  0.0000E+00  0.0000E+00  0.0000E+00  0.0000E+00  0.0000E+00  0.0000E+00
         167  1.6521E+00  6.9919E-01  0.0000E+00  0.0000E+00  0.0000E+00  0.0000E+00  0.0000E+00  0.0000E+00  0.0000E+00  0.0000E+00
         167  1.5062E+00  7.0007E-01  0.0000E+00  0.0000E+00  0.0000E+00  0.0000E+00  0.0000E+00  0.0000E+00  0.0000E+00  0.0000E+00
  Element nb      COORD1      COORD2         S11         S22         S33         S12         E11         E22         E33         E12
         168  1.6517E+00  8.0490E-01  0.0000E+00  0.0000E+00  0.0000E+00  0.0000E+00  0.0000E+00  0.0000E+00  0.0000E+00  0.0000E+00
         168  1.5058E+00  8.0586E-01  0.0000E+00  0.0000E+00  0.0000E+00  0.0000E+00  0.0000E+00  0.0000E+00  0.0000E+00  0.0000E+00
         168  1.6530E+00  9.4921E-01  0.0000E+00  0.0000E+00  0.0000E+00  0.0000E+00  0.0000E+00  0.0000E+00  0.0000E+00  0.0000E+00
         168  1.5072E+00  9.5022E-01  0.0000E+00  0.0000E+00  0.0000E+00  0.0000E+00  0.0000E+00  0.0000E+00  0.0000E+00  0.0000E+00
  Element nb      COORD1      COORD2         S11         S22         S33         S12         E11         E22         E33         E12
         169  1.6546E+00  1.0548E+00  0.0000E+00  0.0000E+00  0.0000E+00  0.0000E+00  0.0000E+00  0.0000E+00  0.0000E+00  0.0000E+00
         169  1.5089E+00  1.0558E+00  0.0000E+00  0.0000E+00  0.0000E+00  0.0000E+00  0.0000E+00  0.0000E+00  0.0000E+00  0.0000E+00
         169  1.6578E+00  1.1990E+00  0.0000E+00  0.0000E+00  0.0000E+00  0.0000E+00  0.0000E+00  0.0000E+00  0.0000E+00  0.0000E+00
         169  1.5121E+00  1.2000E+00  0.0000E+00  0.0000E+00  0.0000E+00  0.0000E+00  0.0000E+00  0.0000E+00  0.0000E+00  0.0000E+00
  Element nb      COORD1      COORD2         S11         S22         S33         S12         E11         E22         E33         E12
         170  1.6604E+00  1.3046E+00  0.0000E+00  0.0000E+00  0.0000E+00  0.0000E+00  0.0000E+00  0.0000E+00  0.0000E+00  0.0000E+00
         170  1.5148E+00  1.3055E+00  0.0000E+00  0.0000E+00  0.0000E+00  0.0000E+00  0.0000E+00  0.0000E+00  0.0000E+00  0.0000E+00
         170  1.6644E+00  1.4487E+00  0.0000E+00  0.0000E+00  0.0000E+00  0.0000E+00  0.0000E+00  0.0000E+00  0.0000E+00  0.0000E+00
         170  1.5189E+00  1.4496E+00  0.0000E+00  0.0000E+00  0.0000E+00  0.0000E+00  0.0000E+00  0.0000E+00  0.0000E+00  0.0000E+00
  Element nb      COORD1      COORD2         S11         S22         S33         S12         E11         E22         E33         E12
         171  1.6674E+00  1.5543E+00  0.0000E+00  0.0000E+00  0.0000E+00  0.0000E+00  0.0000E+00  0.0000E+00  0.0000E+00  0.0000E+00
         171  1.5221E+00  1.5551E+00  0.0000E+00  0.0000E+00  0.0000E+00  0.0000E+00  0.0000E+00  0.0000E+00  0.0000E+00  0.0000E+00
         171  1.6718E+00  1.6984E+00  0.0000E+00  0.0000E+00  0.0000E+00  0.0000E+00  0.0000E+00  0.0000E+00  0.0000E+00  0.0000E+00
         171  1.5266E+00  1.6992E+00  0.0000E+00  0.0000E+00  0.0000E+00  0.0000E+00  0.0000E+00  0.0000E+00  0.0000E+00  0.0000E+00
  Element nb      COORD1      COORD2         S11         S22         S33         S12         E11         E22         E33         E12
         172  1.6750E+00  1.8039E+00  0.0000E+00  0.0000E+00  0.0000E+00  0.0000E+00  0.0000E+00  0.0000E+00  0.0000E+00  0.0000E+00
         172  1.5300E+00  1.8046E+00  0.0000E+00  0.0000E+00  0.0000E+00  0.0000E+00  0.0000E+00  0.0000E+00  0.0000E+00  0.0000E+00
         172  1.6796E+00  1.9480E+00  0.0000E+00  0.0000E+00  0.0000E+00  0.0000E+00  0.0000E+00  0.0000E+00  0.0000E+00  0.0000E+00
         172  1.5347E+00  1.9486E+00  0.0000E+00  0.0000E+00  0.0000E+00  0.0000E+00  0.0000E+00  0.0000E+00  0.0000E+00  0.0000E+00
  Element nb      COORD1      COORD2         S11         S22         S33         S12         E11         E22         E33         E12
         173  1.6829E+00  2.0536E+00  0.0000E+00  0.0000E+00  0.0000E+00  0.0000E+00  0.0000E+00  0.0000E+00  0.0000E+00  0.0000E+00
         173  1.5381E+00  2.0541E+00  0.0000E+00  0.0000E+00  0.0000E+00  0.0000E+00  0.0000E+00  0.0000E+00  0.0000E+00  0.0000E+00
         173  1.6875E+00  2.1977E+00  0.0000E+00  0.0000E+00  0.0000E+00  0.0000E+00  0.0000E+00  0.0000E+00  0.0000E+00  0.0000E+00
         173  1.5429E+00  2.1981E+00  0.0000E+00  0.0000E+00  0.0000E+00  0.0000E+00  0.0000E+00  0.0000E+00  0.0000E+00  0.0000E+00
  Element nb      COORD1      COORD2         S11         S22         S33         S12         E11         E22         E33         E12
         174  1.6909E+00  2.3032E+00  0.0000E+00  0.0000E+00  0.0000E+00  0.0000E+00  0.0000E+00  0.0000E+00  0.0000E+00  0.0000E+00
         174  1.5464E+00  2.3035E+00  0.0000E+00  0.0000E+00  0.0000E+00  0.0000E+00  0.0000E+00  0.0000E+00  0.0000E+00  0.0000E+00
         174  1.6955E+00  2.4473E+00  0.0000E+00  0.0000E+00  0.0000E+00  0.0000E+00  0.0000E+00  0.0000E+00  0.0000E+00  0.0000E+00
         174  1.5511E+00  2.4473E+00  0.0000E+00  0.0000E+00  0.0000E+00  0.0000E+00  0.0000E+00  0.0000E+00  0.0000E+00  0.0000E+00
  Element nb      COORD1      COORD2         S11         S22         S33         S12         E11         E22         E33         E12
         175  1.4146E+00  3.0562E-01  0.0000E+00  0.0000E+00  0.0000E+00  0.0000E+00  0.0000E+00  0.0000E+00  0.0000E+00  0.0000E+00
         175  1.2692E+00  3.0867E-01  0.0000E+00  0.0000E+00  0.0000E+00  0.0000E+00  0.0000E+00  0.0000E+00  0.0000E+00  0.0000E+00
         175  1.4060E+00  4.5122E-01  0.0000E+00  0.0000E+00  0.0000E+00  0.0000E+00  0.0000E+00  0.0000E+00  0.0000E+00  0.0000E+00
         175  1.2608E+00  4.5566E-01  0.0000E+00  0.0000E+00  0.0000E+00  0.0000E+00  0.0000E+00  0.0000E+00  0.0000E+00  0.0000E+00
  Element nb      COORD1      COORD2         S11         S22         S33         S12         E11         E22         E33         E12
         176  1.4021E+00  5.5756E-01  0.0000E+00  0.0000E+00  0.0000E+00  0.0000E+00  0.0000E+00  0.0000E+00  0.0000E+00  0.0000E+00
         176  1.2571E+00  5.6273E-01  0.0000E+00  0.0000E+00  0.0000E+00  0.0000E+00  0.0000E+00  0.0000E+00  0.0000E+00  0.0000E+00
         176  1.3998E+00  7.0249E-01  0.0000E+00  0.0000E+00  0.0000E+00  0.0000E+00  0.0000E+00  0.0000E+00  0.0000E+00  0.0000E+00
         176  1.2551E+00  7.0825E-01  0.0000E+00  0.0000E+00  0.0000E+00  0.0000E+00  0.0000E+00  0.0000E+00  0.0000E+00  0.0000E+00
  Element nb      COORD1      COORD2         S11         S22         S33         S12         E11         E22         E33         E12
         177  1.3995E+00  8.0839E-01  0.0000E+00  0.0000E+00  0.0000E+00  0.0000E+00  0.0000E+00  0.0000E+00  0.0000E+00  0.0000E+00
         177  1.2550E+00  8.1436E-01  0.0000E+00  0.0000E+00  0.0000E+00  0.0000E+00  0.0000E+00  0.0000E+00  0.0000E+00  0.0000E+00
         177  1.4010E+00  9.5278E-01  0.0000E+00  0.0000E+00  0.0000E+00  0.0000E+00  0.0000E+00  0.0000E+00  0.0000E+00  0.0000E+00
         177  1.2566E+00  9.5873E-01  0.0000E+00  0.0000E+00  0.0000E+00  0.0000E+00  0.0000E+00  0.0000E+00  0.0000E+00  0.0000E+00
  Element nb      COORD1      COORD2         S11         S22         S33         S12         E11         E22         E33         E12
         178  1.4027E+00  1.0584E+00  0.0000E+00  0.0000E+00  0.0000E+00  0.0000E+00  0.0000E+00  0.0000E+00  0.0000E+00  0.0000E+00
         178  1.2584E+00  1.0642E+00  0.0000E+00  0.0000E+00  0.0000E+00  0.0000E+00  0.0000E+00  0.0000E+00  0.0000E+00  0.0000E+00
         178  1.4060E+00  1.2024E+00  0.0000E+00  0.0000E+00  0.0000E+00  0.0000E+00  0.0000E+00  0.0000E+00  0.0000E+00  0.0000E+00
         178  1.2618E+00  1.2079E+00  0.0000E+00  0.0000E+00  0.0000E+00  0.0000E+00  0.0000E+00  0.0000E+00  0.0000E+00  0.0000E+00
  Element nb      COORD1      COORD2         S11         S22         S33         S12         E11         E22         E33         E12
         179  1.4087E+00  1.3078E+00  0.0000E+00  0.0000E+00  0.0000E+00  0.0000E+00  0.0000E+00  0.0000E+00  0.0000E+00  0.0000E+00
         179  1.2646E+00  1.3130E+00  0.0000E+00  0.0000E+00  0.0000E+00  0.0000E+00  0.0000E+00  0.0000E+00  0.0000E+00  0.0000E+00
         179  1.4129E+00  1.4517E+00  0.0000E+00  0.0000E+00  0.0000E+00  0.0000E+00  0.0000E+00  0.0000E+00  0.0000E+00  0.0000E+00
         179  1.2688E+00  1.4564E+00  0.0000E+00  0.0000E+00  0.0000E+00  0.0000E+00  0.0000E+00  0.0000E+00  0.0000E+00  0.0000E+00
  Element nb      COORD1      COORD2         S11         S22         S33         S12         E11         E22         E33         E12
         180  1.4161E+00  1.5570E+00  0.0000E+00  0.0000E+00  0.0000E+00  0.0000E+00  0.0000E+00  0.0000E+00  0.0000E+00  0.0000E+00
         180  1.2720E+00  1.5614E+00  0.0000E+00  0.0000E+00  0.0000E+00  0.0000E+00  0.0000E+00  0.0000E+00  0.0000E+00  0.0000E+00
         180  1.4207E+00  1.7008E+00  0.0000E+00  0.0000E+00  0.0000E+00  0.0000E+00  0.0000E+00  0.0000E+00  0.0000E+00  0.0000E+00
         180  1.2766E+00  1.7047E+00  0.0000E+00  0.0000E+00  0.0000E+00  0.0000E+00  0.0000E+00  0.0000E+00  0.0000E+00  0.0000E+00
  Element nb      COORD1      COORD2         S11         S22         S33         S12         E11         E22         E33         E12
         181  1.4242E+00  1.8061E+00  0.0000E+00  0.0000E+00  0.0000E+00  0.0000E+00  0.0000E+00  0.0000E+00  0.0000E+00  0.0000E+00
         181  1.2801E+00  1.8096E+00  0.0000E+00  0.0000E+00  0.0000E+00  0.0000E+00  0.0000E+00  0.0000E+00  0.0000E+00  0.0000E+00
         181  1.4289E+00  1.9499E+00  0.0000E+00  0.0000E+00  0.0000E+00  0.0000E+00  0.0000E+00  0.0000E+00  0.0000E+00  0.0000E+00
         181  1.2848E+00  1.9528E+00  0.0000E+00  0.0000E+00  0.0000E+00  0.0000E+00  0.0000E+00  0.0000E+00  0.0000E+00  0.0000E+00
  Element nb      COORD1      COORD2         S11         S22         S33         S12         E11         E22         E33         E12
         182  1.4324E+00  2.0552E+00  0.0000E+00  0.0000E+00  0.0000E+00  0.0000E+00  0.0000E+00  0.0000E+00  0.0000E+00  0.0000E+00
         182  1.2883E+00  2.0576E+00  0.0000E+00  0.0000E+00  0.0000E+00  0.0000E+00  0.0000E+00  0.0000E+00  0.0000E+00  0.0000E+00
         182  1.4372E+00  2.1989E+00  0.0000E+00  0.0000E+00  0.0000E+00  0.0000E+00  0.0000E+00  0.0000E+00  0.0000E+00  0.0000E+00
         182  1.2931E+00  2.2007E+00  0.0000E+00  0.0000E+00  0.0000E+00  0.0000E+00  0.0000E+00  0.0000E+00  0.0000E+00  0.0000E+00
  Element nb      COORD1      COORD2         S11         S22         S33         S12         E11         E22         E33         E12
         183  1.4407E+00  2.3040E+00  0.0000E+00  0.0000E+00  0.0000E+00  0.0000E+00  0.0000E+00  0.0000E+00  0.0000E+00  0.0000E+00
         183  1.2965E+00  2.3052E+00  0.0000E+00  0.0000E+00  0.0000E+00  0.0000E+00  0.0000E+00  0.0000E+00  0.0000E+00  0.0000E+00
         183  1.4454E+00  2.4475E+00  0.0000E+00  0.0000E+00  0.0000E+00  0.0000E+00  0.0000E+00  0.0000E+00  0.0000E+00  0.0000E+00
         183  1.3011E+00  2.4478E+00  0.0000E+00  0.0000E+00  0.0000E+00  0.0000E+00  0.0000E+00  0.0000E+00  0.0000E+00  0.0000E+00
  Element nb      COORD1      COORD2         S11         S22         S33         S12         E11         E22         E33         E12
         184  1.1620E+00  3.1375E-01  0.0000E+00  0.0000E+00  0.0000E+00  0.0000E+00  0.0000E+00  0.0000E+00  0.0000E+00  0.0000E+00
         184  1.0147E+00  3.2459E-01  0.0000E+00  0.0000E+00  0.0000E+00  0.0000E+00  0.0000E+00  0.0000E+00  0.0000E+00  0.0000E+00
         184  1.1544E+00  4.6265E-01  0.0000E+00  0.0000E+00  0.0000E+00  0.0000E+00  0.0000E+00  0.0000E+00  0.0000E+00  0.0000E+00
         184  1.0090E+00  4.7732E-01  0.0000E+00  0.0000E+00  0.0000E+00  0.0000E+00  0.0000E+00  0.0000E+00  0.0000E+00  0.0000E+00
  Element nb      COORD1      COORD2         S11         S22         S33         S12         E11         E22         E33         E12
         185  1.1512E+00  5.7060E-01  0.0000E+00  0.0000E+00  0.0000E+00  0.0000E+00  0.0000E+00  0.0000E+00  0.0000E+00  0.0000E+00
         185  1.0069E+00  5.8694E-01  0.0000E+00  0.0000E+00  0.0000E+00  0.0000E+00  0.0000E+00  0.0000E+00  0.0000E+00  0.0000E+00
         185  1.1498E+00  7.1661E-01  0.0000E+00  0.0000E+00  0.0000E+00  0.0000E+00  0.0000E+00  0.0000E+00  0.0000E+00  0.0000E+00
         185  1.0068E+00  7.3368E-01  0.0000E+00  0.0000E+00  0.0000E+00  0.0000E+00  0.0000E+00  0.0000E+00  0.0000E+00  0.0000E+00
  Element nb      COORD1      COORD2         S11         S22         S33         S12         E11         E22         E33         E12
         186  1.1500E+00  8.2280E-01  0.0000E+00  0.0000E+00  0.0000E+00  0.0000E+00  0.0000E+00  0.0000E+00  0.0000E+00  0.0000E+00
         186  1.0076E+00  8.3990E-01  0.0000E+00  0.0000E+00  0.0000E+00  0.0000E+00  0.0000E+00  0.0000E+00  0.0000E+00  0.0000E+00
         186  1.1518E+00  9.6692E-01  0.0000E+00  0.0000E+00  0.0000E+00  0.0000E+00  0.0000E+00  0.0000E+00  0.0000E+00  0.0000E+00
         186  1.0100E+00  9.8333E-01  0.0000E+00  0.0000E+00  0.0000E+00  0.0000E+00  0.0000E+00  0.0000E+00  0.0000E+00  0.0000E+00
  Element nb      COORD1      COORD2         S11         S22         S33         S12         E11         E22         E33         E12
         187  1.1538E+00  1.0721E+00  0.0000E+00  0.0000E+00  0.0000E+00  0.0000E+00  0.0000E+00  0.0000E+00  0.0000E+00  0.0000E+00
         187  1.0121E+00  1.0878E+00  0.0000E+00  0.0000E+00  0.0000E+00  0.0000E+00  0.0000E+00  0.0000E+00  0.0000E+00  0.0000E+00
         187  1.1572E+00  1.2152E+00  0.0000E+00  0.0000E+00  0.0000E+00  0.0000E+00  0.0000E+00  0.0000E+00  0.0000E+00  0.0000E+00
         187  1.0155E+00  1.2297E+00  0.0000E+00  0.0000E+00  0.0000E+00  0.0000E+00  0.0000E+00  0.0000E+00  0.0000E+00  0.0000E+00
  Element nb      COORD1      COORD2         S11         S22         S33         S12         E11         E22         E33         E12
         188  1.1599E+00  1.3199E+00  0.0000E+00  0.0000E+00  0.0000E+00  0.0000E+00  0.0000E+00  0.0000E+00  0.0000E+00  0.0000E+00
         188  1.0182E+00  1.3334E+00  0.0000E+00  0.0000E+00  0.0000E+00  0.0000E+00  0.0000E+00  0.0000E+00  0.0000E+00  0.0000E+00
         188  1.1641E+00  1.4626E+00  0.0000E+00  0.0000E+00  0.0000E+00  0.0000E+00  0.0000E+00  0.0000E+00  0.0000E+00  0.0000E+00
         188  1.0221E+00  1.4747E+00  0.0000E+00  0.0000E+00  0.0000E+00  0.0000E+00  0.0000E+00  0.0000E+00  0.0000E+00  0.0000E+00
  Element nb      COORD1      COORD2         S11         S22         S33         S12         E11         E22         E33         E12
         189  1.1673E+00  1.5670E+00  0.0000E+00  0.0000E+00  0.0000E+00  0.0000E+00  0.0000E+00  0.0000E+00  0.0000E+00  0.0000E+00
         189  1.0251E+00  1.5780E+00  0.0000E+00  0.0000E+00  0.0000E+00  0.0000E+00  0.0000E+00  0.0000E+00  0.0000E+00  0.0000E+00
         189  1.1718E+00  1.7096E+00  0.0000E+00  0.0000E+00  0.0000E+00  0.0000E+00  0.0000E+00  0.0000E+00  0.0000E+00  0.0000E+00
         189  1.0294E+00  1.7190E+00  0.0000E+00  0.0000E+00  0.0000E+00  0.0000E+00  0.0000E+00  0.0000E+00  0.0000E+00  0.0000E+00
  Element nb      COORD1      COORD2         S11         S22         S33         S12         E11         E22         E33         E12
         190  1.1751E+00  1.8139E+00  0.0000E+00  0.0000E+00  0.0000E+00  0.0000E+00  0.0000E+00  0.0000E+00  0.0000E+00  0.0000E+00
         190  1.0325E+00  1.8222E+00  0.0000E+00  0.0000E+00  0.0000E+00  0.0000E+00  0.0000E+00  0.0000E+00  0.0000E+00  0.0000E+00
         190  1.1798E+00  1.9563E+00  0.0000E+00  0.0000E+00  0.0000E+00  0.0000E+00  0.0000E+00  0.0000E+00  0.0000E+00  0.0000E+00
         190  1.0368E+00  1.9630E+00  0.0000E+00  0.0000E+00  0.0000E+00  0.0000E+00  0.0000E+00  0.0000E+00  0.0000E+00  0.0000E+00
  Element nb      COORD1      COORD2         S11         S22         S33         S12         E11         E22         E33         E12
         191  1.1832E+00  2.0605E+00  0.0000E+00  0.0000E+00  0.0000E+00  0.0000E+00  0.0000E+00  0.0000E+00  0.0000E+00  0.0000E+00
         191  1.0400E+00  2.0659E+00  0.0000E+00  0.0000E+00  0.0000E+00  0.0000E+00  0.0000E+00  0.0000E+00  0.0000E+00  0.0000E+00
         191  1.1878E+00  2.2027E+00  0.0000E+00  0.0000E+00  0.0000E+00  0.0000E+00  0.0000E+00  0.0000E+00  0.0000E+00  0.0000E+00
         191  1.0442E+00  2.2064E+00  0.0000E+00  0.0000E+00  0.0000E+00  0.0000E+00  0.0000E+00  0.0000E+00  0.0000E+00  0.0000E+00
  Element nb      COORD1      COORD2         S11         S22         S33         S12         E11         E22         E33         E12
         192  1.1911E+00  2.3065E+00  0.0000E+00  0.0000E+00  0.0000E+00  0.0000E+00  0.0000E+00  0.0000E+00  0.0000E+00  0.0000E+00
         192  1.0473E+00  2.3090E+00  0.0000E+00  0.0000E+00  0.0000E+00  0.0000E+00  0.0000E+00  0.0000E+00  0.0000E+00  0.0000E+00
         192  1.1955E+00  2.4482E+00  0.0000E+00  0.0000E+00  0.0000E+00  0.0000E+00  0.0000E+00  0.0000E+00  0.0000E+00  0.0000E+00
         192  1.0513E+00  2.4488E+00  0.0000E+00  0.0000E+00  0.0000E+00  0.0000E+00  0.0000E+00  0.0000E+00  0.0000E+00  0.0000E+00
  Element nb      COORD1      COORD2         S11         S22         S33         S12         E11         E22         E33         E12
         193  9.0284E-01  3.3602E-01  0.0000E+00  0.0000E+00  0.0000E+00  0.0000E+00  0.0000E+00  0.0000E+00  0.0000E+00  0.0000E+00
         193  7.4459E-01  3.5642E-01  0.0000E+00  0.0000E+00  0.0000E+00  0.0000E+00  0.0000E+00  0.0000E+00  0.0000E+00  0.0000E+00
         193  9.0083E-01  4.9257E-01  0.0000E+00  0.0000E+00  0.0000E+00  0.0000E+00  0.0000E+00  0.0000E+00  0.0000E+00  0.0000E+00
         193  7.5074E-01  5.1956E-01  0.0000E+00  0.0000E+00  0.0000E+00  0.0000E+00  0.0000E+00  0.0000E+00  0.0000E+00  0.0000E+00
  Element nb      COORD1      COORD2         S11         S22         S33         S12         E11         E22         E33         E12
         194  9.0062E-01  6.0351E-01  0.0000E+00  0.0000E+00  0.0000E+00  0.0000E+00  0.0000E+00  0.0000E+00  0.0000E+00  0.0000E+00
         194  7.5457E-01  6.3244E-01  0.0000E+00  0.0000E+00  0.0000E+00  0.0000E+00  0.0000E+00  0.0000E+00  0.0000E+00  0.0000E+00
         194  9.0207E-01  7.5005E-01  0.0000E+00  0.0000E+00  0.0000E+00  0.0000E+00  0.0000E+00  0.0000E+00  0.0000E+00  0.0000E+00
         194  7.5890E-01  7.7767E-01  0.0000E+00  0.0000E+00  0.0000E+00  0.0000E+00  0.0000E+00  0.0000E+00  0.0000E+00  0.0000E+00
  Element nb      COORD1      COORD2         S11         S22         S33         S12         E11         E22         E33         E12
         195  9.0363E-01  8.5578E-01  0.0000E+00  0.0000E+00  0.0000E+00  0.0000E+00  0.0000E+00  0.0000E+00  0.0000E+00  0.0000E+00
         195  7.6182E-01  8.8209E-01  0.0000E+00  0.0000E+00  0.0000E+00  0.0000E+00  0.0000E+00  0.0000E+00  0.0000E+00  0.0000E+00
         195  9.0643E-01  9.9812E-01  0.0000E+00  0.0000E+00  0.0000E+00  0.0000E+00  0.0000E+00  0.0000E+00  0.0000E+00  0.0000E+00
         195  7.6547E-01  1.0221E+00  0.0000E+00  0.0000E+00  0.0000E+00  0.0000E+00  0.0000E+00  0.0000E+00  0.0000E+00  0.0000E+00
  Element nb      COORD1      COORD2         S11         S22         S33         S12         E11         E22         E33         E12
         196  9.0871E-01  1.1017E+00  0.0000E+00  0.0000E+00  0.0000E+00  0.0000E+00  0.0000E+00  0.0000E+00  0.0000E+00  0.0000E+00
         196  7.6805E-01  1.1240E+00  0.0000E+00  0.0000E+00  0.0000E+00  0.0000E+00  0.0000E+00  0.0000E+00  0.0000E+00  0.0000E+00
         196  9.1213E-01  1.2423E+00  0.0000E+00  0.0000E+00  0.0000E+00  0.0000E+00  0.0000E+00  0.0000E+00  0.0000E+00  0.0000E+00
         196  7.7147E-01  1.2624E+00  0.0000E+00  0.0000E+00  0.0000E+00  0.0000E+00  0.0000E+00  0.0000E+00  0.0000E+00  0.0000E+00
  Element nb      COORD1      COORD2         S11         S22         S33         S12         E11         E22         E33         E12
         197  9.1477E-01  1.3450E+00  0.0000E+00  0.0000E+00  0.0000E+00  0.0000E+00  0.0000E+00  0.0000E+00  0.0000E+00  0.0000E+00
         197  7.7400E-01  1.3634E+00  0.0000E+00  0.0000E+00  0.0000E+00  0.0000E+00  0.0000E+00  0.0000E+00  0.0000E+00  0.0000E+00
         197  9.1856E-01  1.4850E+00  0.0000E+00  0.0000E+00  0.0000E+00  0.0000E+00  0.0000E+00  0.0000E+00  0.0000E+00  0.0000E+00
         197  7.7750E-01  1.5010E+00  0.0000E+00  0.0000E+00  0.0000E+00  0.0000E+00  0.0000E+00  0.0000E+00  0.0000E+00  0.0000E+00
  Element nb      COORD1      COORD2         S11         S22         S33         S12         E11         E22         E33         E12
         198  9.2140E-01  1.5873E+00  0.0000E+00  0.0000E+00  0.0000E+00  0.0000E+00  0.0000E+00  0.0000E+00  0.0000E+00  0.0000E+00
         198  7.8009E-01  1.6017E+00  0.0000E+00  0.0000E+00  0.0000E+00  0.0000E+00  0.0000E+00  0.0000E+00  0.0000E+00  0.0000E+00
         198  9.2538E-01  1.7269E+00  0.0000E+00  0.0000E+00  0.0000E+00  0.0000E+00  0.0000E+00  0.0000E+00  0.0000E+00  0.0000E+00
         198  7.8367E-01  1.7391E+00  0.0000E+00  0.0000E+00  0.0000E+00  0.0000E+00  0.0000E+00  0.0000E+00  0.0000E+00  0.0000E+00
  Element nb      COORD1      COORD2         S11         S22         S33         S12         E11         E22         E33         E12
         199  9.2832E-01  1.8291E+00  0.0000E+00  0.0000E+00  0.0000E+00  0.0000E+00  0.0000E+00  0.0000E+00  0.0000E+00  0.0000E+00
         199  7.8628E-01  1.8397E+00  0.0000E+00  0.0000E+00  0.0000E+00  0.0000E+00  0.0000E+00  0.0000E+00  0.0000E+00  0.0000E+00
         199  9.3235E-01  1.9685E+00  0.0000E+00  0.0000E+00  0.0000E+00  0.0000E+00  0.0000E+00  0.0000E+00  0.0000E+00  0.0000E+00
         199  7.8986E-01  1.9769E+00  0.0000E+00  0.0000E+00  0.0000E+00  0.0000E+00  0.0000E+00  0.0000E+00  0.0000E+00  0.0000E+00
  Element nb      COORD1      COORD2         S11         S22         S33         S12         E11         E22         E33         E12
         200  9.3528E-01  2.0704E+00  0.0000E+00  0.0000E+00  0.0000E+00  0.0000E+00  0.0000E+00  0.0000E+00  0.0000E+00  0.0000E+00
         200  7.9244E-01  2.0772E+00  0.0000E+00  0.0000E+00  0.0000E+00  0.0000E+00  0.0000E+00  0.0000E+00  0.0000E+00  0.0000E+00
         200  9.3922E-01  2.2094E+00  0.0000E+00  0.0000E+00  0.0000E+00  0.0000E+00  0.0000E+00  0.0000E+00  0.0000E+00  0.0000E+00
         200  7.9590E-01  2.2140E+00  0.0000E+00  0.0000E+00  0.0000E+00  0.0000E+00  0.0000E+00  0.0000E+00  0.0000E+00  0.0000E+00
  Element nb      COORD1      COORD2         S11         S22         S33         S12         E11         E22         E33         E12
         201  9.4204E-01  2.3110E+00  0.0000E+00  0.0000E+00  0.0000E+00  0.0000E+00  0.0000E+00  0.0000E+00  0.0000E+00  0.0000E+00
         201  7.9837E-01  2.3139E+00  0.0000E+00  0.0000E+00  0.0000E+00  0.0000E+00  0.0000E+00  0.0000E+00  0.0000E+00  0.0000E+00
         201  9.4579E-01  2.4494E+00  0.0000E+00  0.0000E+00  0.0000E+00  0.0000E+00  0.0000E+00  0.0000E+00  0.0000E+00  0.0000E+00
         201  8.0163E-01  2.4501E+00  0.0000E+00  0.0000E+00  0.0000E+00  0.0000E+00  0.0000E+00  0.0000E+00  0.0000E+00  0.0000E+00
  Element nb      COORD1      COORD2         S11         S22         S33         S12         E11         E22         E33         E12
           1  6.9613E-01  2.4509E+00  1.0094E+00 -7.3697E-03  3.0062E-01  1.0193E-02  9.2147E-03 -4.0039E-03  0.0000E+00  2.6503E-04
           1  6.9331E-01  2.3167E+00  1.0266E+00 -1.6907E-04  3.0792E-01  1.2389E-02  9.3424E-03 -4.0052E-03  0.0000E+00  3.2210E-04
           1  5.5206E-01  2.4521E+00  1.0134E+00  1.5253E-03  3.0447E-01  1.5605E-02  9.2159E-03 -3.9383E-03  0.0000E+00  4.0573E-04
           1  5.4996E-01  2.3214E+00  1.0310E+00  8.9564E-03  3.1198E-01  1.7883E-02  9.3470E-03 -3.9393E-03  0.0000E+00  4.6496E-04
  Element nb      COORD1      COORD2         S11         S22         S33         S12         E11         E22         E33         E12
           2  4.4658E-01  2.4531E+00  9.8119E-01 -6.9827E-03  2.9226E-01  5.4531E-03  8.9561E-03 -3.8902E-03  0.0000E+00  1.4178E-04
           2  4.4496E-01  2.3251E+00  1.0060E+00  3.6049E-03  3.0289E-01  7.0378E-03  9.1409E-03 -3.8907E-03  0.0000E+00  1.8298E-04
           2  3.0246E-01  2.4546E+00  9.8440E-01 -7.0855E-05  2.9530E-01  1.3702E-02  8.9583E-03 -3.8398E-03  0.0000E+00  3.5626E-04
           2  3.0144E-01  2.3306E+00  1.0101E+00  1.0889E-02  3.0629E-01  1.5371E-02  9.1491E-03 -3.8402E-03  0.0000E+00  3.9965E-04
  Element nb      COORD1      COORD2         S11         S22         S33         S12         E11         E22         E33         E12
           3  1.9694E-01  2.4557E+00  9.6382E-01 -5.6438E-03  2.8745E-01 -1.4380E-03  8.7927E-03 -3.8102E-03  0.0000E+00 -3.7388E-05
           3  1.9631E-01  2.3347E+00  9.9331E-01  6.9869E-03  3.0009E-01 -8.9671E-04  9.0119E-03 -3.8103E-03  0.0000E+00 -2.3314E-05
           3  5.2769E-02  2.4572E+00  9.6527E-01 -2.9657E-03  2.8869E-01  8.9259E-03  8.7955E-03 -3.7915E-03  0.0000E+00  2.3207E-04
           3  5.2600E-02  2.3402E+00  9.9580E-01  1.0116E-02  3.0178E-01  9.5191E-03  9.0223E-03 -3.7916E-03  0.0000E+00  2.4750E-04
  Element nb      COORD1      COORD2         S11         S22         S33         S12         E11         E22         E33         E12
           4  6.9117E-01  2.2183E+00  1.0356E+00 -5.2068E-03  3.0912E-01  2.8679E-02  9.4445E-03 -4.0863E-03  0.0000E+00  7.4565E-04
           4  6.8817E-01  2.0837E+00  1.0500E+00  8.0966E-04  3.1526E-01  3.1152E-02  9.5522E-03 -4.0878E-03  0.0000E+00  8.0995E-04
           4  5.4837E-01  2.2256E+00  1.0406E+00  4.8829E-03  3.1364E-01  3.3319E-02  9.4504E-03 -4.0139E-03  0.0000E+00  8.6631E-04
           4  5.4612E-01  2.0946E+00  1.0555E+00  1.1121E-02  3.1997E-01  3.5886E-02  9.5613E-03 -4.0151E-03  0.0000E+00  9.3303E-04
  Element nb      COORD1      COORD2         S11         S22         S33         S12         E11         E22         E33         E12
           5  4.4373E-01  2.2313E+00  1.0190E+00  1.5946E-03  3.0619E-01  2.0516E-02  9.2670E-03 -3.9597E-03  0.0000E+00  5.3343E-04
           5  4.4199E-01  2.1032E+00  1.0347E+00  8.2342E-03  3.1288E-01  2.2378E-02  9.3836E-03 -3.9604E-03  0.0000E+00  5.8183E-04
           5  3.0065E-01  2.2398E+00  1.0234E+00  9.7832E-03  3.0996E-01  2.5803E-02  9.2749E-03 -3.9023E-03  0.0000E+00  6.7087E-04
           5  2.9953E-01  2.1157E+00  1.0396E+00  1.6676E-02  3.1689E-01  2.7748E-02  9.3955E-03 -3.9027E-03  0.0000E+00  7.2144E-04
  Element nb      COORD1      COORD2         S11         S22         S33         S12         E11         E22         E33         E12
           6  1.9582E-01  2.2460E+00  1.0079E+00  6.8444E-03  3.0443E-01  5.8315E-03  9.1454E-03 -3.8686E-03  0.0000E+00  1.5162E-04
           6  1.9511E-01  2.1249E+00  1.0244E+00  1.3916E-02  3.1151E-01  6.4469E-03  9.2682E-03 -3.8687E-03  0.0000E+00  1.6762E-04
           6  5.2469E-02  2.2546E+00  1.0103E+00  1.0111E-02  3.0612E-01  1.1648E-02  9.1543E-03 -3.8482E-03  0.0000E+00  3.0286E-04
           6  5.2280E-02  2.1376E+00  1.0274E+00  1.7446E-02  3.1346E-01  1.2306E-02  9.2815E-03 -3.8482E-03  0.0000E+00  3.1997E-04
  Element nb      COORD1      COORD2         S11         S22         S33         S12         E11         E22         E33         E12
           7  6.8592E-01  1.9850E+00  1.0577E+00 -5.6196E-03  3.1562E-01  3.9040E-02  9.6468E-03 -4.1761E-03  0.0000E+00  1.0150E-03
           7  6.8280E-01  1.8499E+00  1.0730E+00  6.8253E-04  3.2211E-01  4.3094E-02  9.7619E-03 -4.1786E-03  0.0000E+00  1.1204E-03
           7  5.4444E-01  1.9987E+00  1.0660E+00  1.0694E-02  3.2301E-01  4.4225E-02  9.6588E-03 -4.0601E-03  0.0000E+00  1.1499E-03
           7  5.4210E-01  1.8675E+00  1.0818E+00  1.7267E-02  3.2973E-01  4.8427E-02  9.7774E-03 -4.0620E-03  0.0000E+00  1.2591E-03
  Element nb      COORD1      COORD2         S11         S22         S33         S12         E11         E22         E33         E12
           8  4.4068E-01  2.0094E+00  1.0460E+00  1.1473E-02  3.1725E-01  2.9840E-02  9.4742E-03 -3.9751E-03  0.0000E+00  7.7584E-04
           8  4.3886E-01  1.8811E+00  1.0582E+00  1.6558E-02  3.2243E-01  3.2999E-02  9.5651E-03 -3.9763E-03  0.0000E+00  8.5798E-04
           8  2.9869E-01  2.0249E+00  1.0530E+00  2.4926E-02  3.2339E-01  3.4224E-02  9.4855E-03 -3.8801E-03  0.0000E+00  8.8981E-04
           8  2.9751E-01  1.9007E+00  1.0657E+00  3.0240E-02  3.2877E-01  3.7508E-02  9.5795E-03 -3.8809E-03  0.0000E+00  9.7522E-04
  Element nb      COORD1      COORD2         S11         S22         S33         S12         E11         E22         E33         E12
           9  1.9458E-01  2.0363E+00  1.0377E+00  2.4149E-02  3.1855E-01  1.0400E-02  9.3488E-03 -3.8272E-03  0.0000E+00  2.7039E-04
           9  1.9383E-01  1.9152E+00  1.0477E+00  2.8431E-02  3.2285E-01  1.1383E-02  9.4234E-03 -3.8274E-03  0.0000E+00  2.9595E-04
           9  5.2137E-02  2.0520E+00  1.0409E+00  2.8976E-02  3.2095E-01  1.4016E-02  9.3588E-03 -3.7957E-03  0.0000E+00  3.6440E-04
           9  5.1937E-02  1.9350E+00  1.0513E+00  3.3430E-02  3.2541E-01  1.5048E-02  9.4361E-03 -3.7957E-03  0.0000E+00  3.9124E-04
  Element nb      COORD1      COORD2         S11         S22         S33         S12         E11         E22         E33         E12
          10  6.8050E-01  1.7511E+00  1.0785E+00 -1.0913E-02  3.2026E-01  4.4992E-02  9.8565E-03 -4.3053E-03  0.0000E+00  1.1698E-03
          10  6.7736E-01  1.6159E+00  1.0994E+00 -2.4108E-03  3.2909E-01  5.1742E-02  1.0014E-02 -4.3094E-03  0.0000E+00  1.3453E-03
          10  5.4038E-01  1.7714E+00  1.0927E+00  1.6121E-02  3.3265E-01  5.2477E-02  9.8808E-03 -4.1149E-03  0.0000E+00  1.3644E-03
          10  5.3800E-01  1.6401E+00  1.1143E+00  2.5018E-02  3.4180E-01  5.9471E-02  1.0043E-02 -4.1182E-03  0.0000E+00  1.5462E-03
  Element nb      COORD1      COORD2         S11         S22         S33         S12         E11         E22         E33         E12
          11  4.3752E-01  1.7872E+00  1.0682E+00  2.0825E-02  3.2670E-01  3.7164E-02  9.6393E-03 -3.9764E-03  0.0000E+00  9.6626E-04
          11  4.3566E-01  1.6588E+00  1.0817E+00  2.6384E-02  3.3242E-01  4.2691E-02  9.7405E-03 -3.9785E-03  0.0000E+00  1.1100E-03
          11  2.9663E-01  1.8098E+00  1.0801E+00  4.3974E-02  3.3723E-01  4.2580E-02  9.6576E-03 -3.8123E-03  0.0000E+00  1.1071E-03
          11  2.9542E-01  1.6856E+00  1.0941E+00  4.9824E-02  3.4319E-01  4.8320E-02  9.7624E-03 -3.8138E-03  0.0000E+00  1.2563E-03
  Element nb      COORD1      COORD2         S11         S22         S33         S12         E11         E22         E33         E12
          12  1.9328E-01  1.8265E+00  1.0608E+00  4.5350E-02  3.3184E-01  1.4175E-02  9.4762E-03 -3.7243E-03  0.0000E+00  3.6854E-04
          12  1.9251E-01  1.7053E+00  1.0684E+00  4.8575E-02  3.3508E-01  1.5862E-02  9.5328E-03 -3.7246E-03  0.0000E+00  4.1240E-04
          12  5.1788E-02  1.8494E+00  1.0653E+00  5.3162E-02  3.3555E-01  1.7129E-02  9.4872E-03 -3.6710E-03  0.0000E+00  4.4537E-04
          12  5.1583E-02  1.7324E+00  1.0732E+00  5.6537E-02  3.3893E-01  1.8890E-02  9.5459E-03 -3.6711E-03  0.0000E+00  4.9113E-04
  Element nb      COORD1      COORD2         S11         S22         S33         S12         E11         E22         E33         E12
          13  6.7507E-01  1.5168E+00  1.1006E+00 -2.5587E-02  3.2251E-01  4.6726E-02  1.0115E-02 -4.5252E-03  0.0000E+00  1.2149E-03
          13  6.7195E-01  1.3814E+00  1.1340E+00 -1.2001E-02  3.3659E-01  5.7312E-02  1.0366E-02 -4.5317E-03  0.0000E+00  1.4901E-03
          13  5.3627E-01  1.5439E+00  1.1246E+00  1.7165E-02  3.4253E-01  5.9080E-02  1.0167E-02 -4.2297E-03  0.0000E+00  1.5361E-03
          13  5.3390E-01  1.4124E+00  1.1591E+00  3.1381E-02  3.5714E-01  7.0055E-02  1.0425E-02 -4.2349E-03  0.0000E+00  1.8214E-03
  Element nb      COORD1      COORD2         S11         S22         S33         S12         E11         E22         E33         E12
          14  4.3431E-01  1.5648E+00  1.0898E+00  2.6487E-02  3.3490E-01  4.4000E-02  9.8143E-03 -4.0094E-03  0.0000E+00  1.1440E-03
          14  4.3245E-01  1.4363E+00  1.1109E+00  3.5094E-02  3.4378E-01  5.3521E-02  9.9719E-03 -4.0130E-03  0.0000E+00  1.3915E-03
          14  2.9454E-01  1.5946E+00  1.1111E+00  6.6353E-02  3.5323E-01  5.3093E-02  9.8520E-03 -3.7294E-03  0.0000E+00  1.3804E-03
          14  2.9332E-01  1.4703E+00  1.1329E+00  7.5432E-02  3.6250E-01  6.2985E-02  1.0015E-02 -3.7319E-03  0.0000E+00  1.6376E-03
  Element nb      COORD1      COORD2         S11         S22         S33         S12         E11         E22         E33         E12
          15  1.9195E-01  1.6166E+00  1.0823E+00  7.0311E-02  3.4578E-01  1.8133E-02  9.5747E-03 -3.5811E-03  0.0000E+00  4.7145E-04
          15  1.9117E-01  1.4953E+00  1.0912E+00  7.4059E-02  3.4957E-01  2.1119E-02  9.6408E-03 -3.5816E-03  0.0000E+00  5.4909E-04
          15  5.1432E-02  1.6467E+00  1.0900E+00  8.3874E-02  3.5215E-01  2.1949E-02  9.5917E-03 -3.4877E-03  0.0000E+00  5.7067E-04
          15  5.1225E-02  1.5297E+00  1.0992E+00  8.7815E-02  3.5611E-01  2.5062E-02  9.6603E-03 -3.4878E-03  0.0000E+00  6.5160E-04
  Element nb      COORD1      COORD2         S11         S22         S33         S12         E11         E22         E33         E12
          16  6.6963E-01  1.2821E+00  1.1261E+00 -5.6471E-02  3.2088E-01  3.9844E-02  1.0467E-02 -4.9055E-03  0.0000E+00  1.0359E-03
          16  6.6640E-01  1.1462E+00  1.1822E+00 -3.3460E-02  3.4463E-01  5.5080E-02  1.0889E-02 -4.9152E-03  0.0000E+00  1.4321E-03
          16  5.3205E-01  1.3161E+00  1.1651E+00  6.7706E-03  3.5156E-01  6.0757E-02  1.0576E-02 -4.4822E-03  0.0000E+00  1.5797E-03
          16  5.2934E-01  1.1844E+00  1.2232E+00  3.0743E-02  3.7619E-01  7.6563E-02  1.1012E-02 -4.4909E-03  0.0000E+00  1.9906E-03
  Element nb      COORD1      COORD2         S11         S22         S33         S12         E11         E22         E33         E12
          17  4.3093E-01  1.3422E+00  1.1147E+00  2.2460E-02  3.4116E-01  4.9401E-02  1.0057E-02 -4.1431E-03  0.0000E+00  1.2844E-03
          17  4.2863E-01  1.2136E+00  1.1543E+00  3.8564E-02  3.5785E-01  6.5449E-02  1.0353E-02 -4.1507E-03  0.0000E+00  1.7017E-03
          17  2.9225E-01  1.3793E+00  1.1538E+00  9.0921E-02  3.7342E-01  6.6966E-02  1.0145E-02 -3.6725E-03  0.0000E+00  1.7411E-03
          17  2.9052E-01  1.2551E+00  1.1949E+00  1.0786E-01  3.9083E-01  8.3661E-02  1.0453E-02 -3.6786E-03  0.0000E+00  2.1752E-03
  Element nb      COORD1      COORD2         S11         S22         S33         S12         E11         E22         E33         E12
          18  1.9045E-01  1.4066E+00  1.1069E+00  9.8965E-02  3.6175E-01  2.2589E-02  9.6865E-03 -3.4162E-03  0.0000E+00  5.8732E-04
          18  1.8926E-01  1.2855E+00  1.1227E+00  1.0560E-01  3.6849E-01  2.7948E-02  9.8047E-03 -3.4176E-03  0.0000E+00  7.2664E-04
          18  5.1032E-02  1.4440E+00  1.1216E+00  1.2359E-01  3.7354E-01  2.9705E-02  9.7242E-03 -3.2494E-03  0.0000E+00  7.7232E-04
          18  5.0711E-02  1.3271E+00  1.1381E+00  1.3062E-01  3.8061E-01  3.5308E-02  9.8470E-03 -3.2498E-03  0.0000E+00  9.1802E-04
  Element nb      COORD1      COORD2         S11         S22         S33         S12         E11         E22         E33         E12
          19  6.6376E-01  1.0462E+00  1.1535E+00 -1.0887E-01  3.1338E-01  1.1068E-02  1.0921E-02 -5.4892E-03  0.0000E+00  2.8777E-04
          19  6.5976E-01  9.0903E-01  1.2460E+00 -7.0767E-02  3.5258E-01  2.9162E-02  1.1615E-02 -5.5035E-03  0.0000E+00  7.5822E-04
          19  5.2685E-01  1.0880E+00  1.2126E+00 -2.7374E-02  3.5557E-01  4.4853E-02  1.1142E-02 -4.9783E-03  0.0000E+00  1.1662E-03
          19  5.2272E-01  9.5633E-01  1.3089E+00  1.2123E-02  3.9630E-01  6.3618E-02  1.1864E-02 -4.9943E-03  0.0000E+00  1.6541E-03
  Element nb      COORD1      COORD2         S11         S22         S33         S12         E11         E22         E33         E12
          20  4.2637E-01  1.1197E+00  1.1458E+00 -2.5428E-03  3.4299E-01  4.6902E-02  1.0437E-02 -4.4919E-03  0.0000E+00  1.2194E-03
          20  4.2249E-01  9.9184E-01  1.2253E+00  2.9185E-02  3.7633E-01  7.2915E-02  1.1036E-02 -4.5129E-03  0.0000E+00  1.8958E-03
          20  2.8876E-01  1.1646E+00  1.2198E+00  1.1425E-01  4.0022E-01  8.2302E-02  1.0655E-02 -3.7176E-03  0.0000E+00  2.1399E-03
          20  2.8569E-01  1.0416E+00  1.3029E+00  1.4786E-01  4.3523E-01  1.0956E-01  1.1280E-02 -3.7357E-03  0.0000E+00  2.8486E-03
  Element nb      COORD1      COORD2         S11         S22         S33         S12         E11         E22         E33         E12
          21  1.8802E-01  1.1973E+00  1.1402E+00  1.2943E-01  3.8088E-01  2.5828E-02  9.8707E-03 -3.2688E-03  0.0000E+00  6.7152E-04
          21  1.8582E-01  1.0772E+00  1.1765E+00  1.4450E-01  3.9630E-01  3.5363E-02  1.0143E-02 -3.2734E-03  0.0000E+00  9.1944E-04
          21  5.0379E-02  1.2415E+00  1.1710E+00  1.7521E-01  4.0388E-01  4.1746E-02  9.9732E-03 -2.9726E-03  0.0000E+00  1.0854E-03
          21  4.9791E-02  1.1248E+00  1.2090E+00  1.9132E-01  4.2009E-01  5.1787E-02  1.0256E-02 -2.9740E-03  0.0000E+00  1.3465E-03
  Element nb      COORD1      COORD2         S11         S22         S33         S12         E11         E22         E33         E12
          22  6.5623E-01  8.0721E-01  1.1666E+00 -1.7369E-01  2.9788E-01 -6.3912E-02  1.1294E-02 -6.1304E-03  0.0000E+00 -1.6617E-03
          22  6.5058E-01  6.6620E-01  1.2844E+00 -1.2496E-01  3.4784E-01 -4.9952E-02  1.2176E-02 -6.1464E-03  0.0000E+00 -1.2988E-03
          22  5.1888E-01  8.6028E-01  1.2393E+00 -9.6353E-02  3.4288E-01 -2.1860E-02  1.1653E-02 -5.7101E-03  0.0000E+00 -5.6835E-04
          22  5.1252E-01  7.2952E-01  1.3652E+00 -4.4664E-02  3.9617E-01 -7.2263E-03  1.2598E-02 -5.7308E-03  0.0000E+00 -1.8788E-04
  Element nb      COORD1      COORD2         S11         S22         S33         S12         E11         E22         E33         E12
          23  4.1882E-01  8.9929E-01  1.1817E+00 -5.8367E-02  3.3700E-01  1.3062E-02  1.0981E-02 -5.1398E-03  0.0000E+00  3.3961E-04
          23  4.1267E-01  7.7431E-01  1.3453E+00  6.3471E-03  4.0550E-01  4.9187E-02  1.2218E-02 -5.1890E-03  0.0000E+00  1.2789E-03
          23  2.8279E-01  9.5279E-01  1.3214E+00  1.2617E-01  4.3427E-01  8.4168E-02  1.1533E-02 -4.0054E-03  0.0000E+00  2.1884E-03
          23  2.7795E-01  8.3336E-01  1.4944E+00  1.9560E-01  5.0699E-01  1.2267E-01  1.2836E-02 -4.0481E-03  0.0000E+00  3.1895E-03
  Element nb      COORD1      COORD2         S11         S22         S33         S12         E11         E22         E33         E12
          24  1.8376E-01  9.9042E-01  1.1913E+00  1.5088E-01  4.0266E-01  1.7906E-02  1.0253E-02 -3.2731E-03  0.0000E+00  4.6555E-04
          24  1.8032E-01  8.7342E-01  1.2889E+00  1.9127E-01  4.4405E-01  3.4086E-02  1.0983E-02 -3.2861E-03  0.0000E+00  8.8622E-04
          24  4.9239E-02  1.0397E+00  1.2620E+00  2.3698E-01  4.4969E-01  5.7334E-02  1.0560E-02 -2.7653E-03  0.0000E+00  1.4907E-03
          24  4.8317E-02  9.2382E-01  1.3627E+00  2.7973E-01  4.9272E-01  7.4551E-02  1.1309E-02 -2.7689E-03  0.0000E+00  1.9383E-03
  Element nb      COORD1      COORD2         S11         S22         S33         S12         E11         E22         E33         E12
          25  6.4501E-01  5.5754E-01  1.0819E+00 -1.7431E-01  2.7228E-01 -2.0789E-01  1.0525E-02 -5.8055E-03  0.0000E+00 -5.4052E-03
          25  6.3543E-01  4.0167E-01  1.1376E+00 -1.5018E-01  2.9623E-01 -2.1020E-01  1.0938E-02 -5.8034E-03  0.0000E+00 -5.4653E-03
          25  5.0624E-01  6.3430E-01  1.1130E+00 -1.6511E-01  2.8436E-01 -1.9152E-01  1.0772E-02 -5.8431E-03  0.0000E+00 -4.9794E-03
          25  4.9545E-01  5.0489E-01  1.1784E+00 -1.3671E-01  3.1250E-01 -1.9463E-01  1.1256E-02 -5.8397E-03  0.0000E+00 -5.0605E-03
  Element nb      COORD1      COORD2         S11         S22         S33         S12         E11         E22         E33         E12
          26  4.0660E-01  6.8572E-01  1.2115E+00 -9.7993E-02  3.3406E-01 -1.1171E-01  1.1407E-02 -5.6167E-03  0.0000E+00 -2.9045E-03
          26  3.9615E-01  5.6866E-01  1.5104E+00  2.2279E-02  4.5980E-01 -8.8766E-02  1.3658E-02 -5.6878E-03  0.0000E+00 -2.3079E-03
          26  2.7314E-01  7.4945E-01  1.4422E+00  1.0692E-01  4.6475E-01  1.0749E-02  1.2707E-02 -4.6518E-03  0.0000E+00  2.7948E-04
          26  2.6484E-01  6.3965E-01  1.7658E+00  2.3843E-01  6.0128E-01  3.6813E-02  1.5139E-02 -4.7170E-03  0.0000E+00  9.5713E-04
  Element nb      COORD1      COORD2         S11         S22         S33         S12         E11         E22         E33         E12
          27  1.7689E-01  7.9073E-01  1.2929E+00  1.4014E-01  4.2990E-01 -4.0202E-02  1.1219E-02 -3.7669E-03  0.0000E+00 -1.0453E-03
          27  1.7096E-01  6.8183E-01  1.5839E+00  2.6161E-01  5.5364E-01 -2.3912E-02  1.3393E-02 -3.7964E-03  0.0000E+00 -6.2170E-04
          27  4.7398E-02  8.3978E-01  1.4515E+00  2.7457E-01  5.1781E-01  6.1928E-02  1.2138E-02 -3.1621E-03  0.0000E+00  1.6101E-03
          27  4.5809E-02  7.2607E-01  1.7397E+00  3.9727E-01  6.4109E-01  8.1331E-02  1.4282E-02 -3.1696E-03  0.0000E+00  2.1146E-03
  Element nb      COORD1      COORD2         S11         S22         S33         S12         E11         E22         E33         E12
          28  4.4215E-02  6.4377E-01  1.8635E+00  4.0515E-02  5.7121E-01 -3.1984E-02  1.6800E-02 -6.8991E-03  0.0000E+00 -8.3157E-04
          28  1.6501E-01  6.0563E-01  1.6336E+00  8.9015E-02  5.1679E-01 -2.9358E-01  1.4519E-02 -5.5611E-03  0.0000E+00 -7.6330E-03
          28  4.1448E-02  5.3264E-01  2.7409E+00  4.1984E-01  9.4823E-01 -8.4551E-02  2.3305E-02 -6.8691E-03  0.0000E+00 -2.1983E-03
          28  1.5469E-01  5.0633E-01  2.5806E+00  5.0962E-01  9.2706E-01 -3.7118E-01  2.1496E-02 -5.4267E-03  0.0000E+00 -9.6508E-03
  Element nb      COORD1      COORD2         S11         S22         S33         S12         E11         E22         E33         E12
          29  2.5415E-01  5.6556E-01  1.3983E+00  6.0505E-02  4.3765E-01 -2.8539E-01  1.2489E-02 -4.9028E-03  0.0000E+00 -7.4201E-03
          29  3.7689E-01  4.9425E-01  1.2442E+00  1.7141E-01  4.2469E-01 -3.7086E-01  1.0654E-02 -3.2927E-03  0.0000E+00 -9.6424E-03
          29  2.3327E-01  4.7294E-01  1.8238E+00  2.8091E-01  6.3141E-01 -3.7059E-01  1.5501E-02 -4.5565E-03  0.0000E+00 -9.6354E-03
          29  3.3471E-01  4.0802E-01  1.6143E+00  3.9807E-01  6.0371E-01 -4.6629E-01  1.3138E-02 -2.6733E-03  0.0000E+00 -1.2124E-02
  Element nb      COORD1      COORD2         S11         S22         S33         S12         E11         E22         E33         E12
          30  4.6719E-01  4.2831E-01  6.7932E-01 -3.9418E-02  1.9197E-01 -3.2563E-01  6.3355E-03 -3.0080E-03  0.0000E+00 -8.4663E-03
          30  5.9117E-01  3.1947E-01  6.9061E-01 -1.3368E-01  1.6708E-01 -3.3547E-01  6.8059E-03 -3.9099E-03  0.0000E+00 -8.7223E-03
          30  4.0077E-01  3.4849E-01  5.5948E-01 -1.7640E-01  1.1493E-01 -2.7181E-01  5.7792E-03 -3.7872E-03  0.0000E+00 -7.0670E-03
          30  4.7980E-01  2.5077E-01  5.9958E-01 -2.6616E-01  1.0003E-01 -2.9586E-01  6.4942E-03 -4.7604E-03  0.0000E+00 -7.6923E-03
  Element nb      COORD1      COORD2         S11         S22         S33         S12         E11         E22         E33         E12
          31  5.1805E-01  1.6956E-01  4.1333E-02 -5.6997E-01 -1.5859E-01 -3.0203E-02  2.5990E-03 -5.3479E-03  0.0000E+00 -7.8527E-04
          31  6.4936E-01  2.2054E-01  2.3335E-01 -1.5609E-01  2.3176E-02 -8.8453E-02  2.7322E-03 -2.3305E-03  0.0000E+00 -2.2998E-03
          31  5.4351E-01  4.5435E-02  5.4104E-02 -6.4738E-01 -1.7798E-01 -1.6831E-01  3.0171E-03 -6.1022E-03  0.0000E+00 -4.3761E-03
          31  6.8436E-01  5.9093E-02  2.4122E-01 -2.1971E-01  6.4544E-03 -1.9394E-01  3.0520E-03 -2.9401E-03  0.0000E+00 -5.0424E-03
  Element nb      COORD1      COORD2         S11         S22         S33         S12         E11         E22         E33         E12
          32  7.9005E-01  6.2701E-02  3.7012E-01 -9.7146E-02  8.1893E-02 -2.0782E-01  3.7470E-03 -2.3275E-03  0.0000E+00 -5.4034E-03
          32  7.5513E-01  2.3400E-01  6.1869E-01  9.3298E-03  1.8841E-01 -1.9344E-01  5.5937E-03 -2.3280E-03  0.0000E+00 -5.0294E-03
          32  9.3796E-01  5.8900E-02  3.7615E-01 -9.4823E-02  8.4399E-02 -1.3924E-01  3.7928E-03 -2.3299E-03  0.0000E+00 -3.6201E-03
          32  9.1279E-01  2.1982E-01  6.3931E-01  1.7912E-02  1.9717E-01 -1.2757E-01  5.7478E-03 -2.3303E-03  0.0000E+00 -3.3169E-03
  Element nb      COORD1      COORD2         S11         S22         S33         S12         E11         E22         E33         E12
          33  1.0452E+00  5.6779E-02  6.0500E-01 -2.4510E-03  1.8077E-01 -9.5745E-02  5.5151E-03 -2.3818E-03  0.0000E+00 -2.4894E-03
          33  1.0244E+00  2.1190E-01  6.9620E-01  3.4711E-02  2.1927E-01 -9.7229E-02  6.2001E-03 -2.3993E-03  0.0000E+00 -2.5279E-03
          33  1.1903E+00  5.4785E-02  5.9887E-01 -1.9117E-02  1.7393E-01 -7.0022E-02  5.5243E-03 -2.5096E-03  0.0000E+00 -1.8206E-03
          33  1.1717E+00  2.0446E-01  6.9341E-01  1.9546E-02  2.1389E-01 -7.1816E-02  6.2338E-03 -2.5264E-03  0.0000E+00 -1.8672E-03
  Element nb      COORD1      COORD2         S11         S22         S33         S12         E11         E22         E33         E12
          34  1.2964E+00  5.3859E-02  7.3664E-01  2.8041E-02  2.2940E-01 -5.1473E-02  6.5941E-03 -2.6177E-03  0.0000E+00 -1.3383E-03
          34  1.2787E+00  2.0101E-01  7.7469E-01  4.2219E-02  2.4507E-01 -5.6340E-02  6.8850E-03 -2.6371E-03  0.0000E+00 -1.4648E-03
          34  1.4409E+00  5.3324E-02  7.2751E-01  6.4645E-03  2.2019E-01 -4.0354E-02  6.5951E-03 -2.7785E-03  0.0000E+00 -1.0492E-03
          34  1.4240E+00  1.9901E-01  7.6597E-01  2.0856E-02  2.3605E-01 -4.5307E-02  6.8890E-03 -2.7975E-03  0.0000E+00 -1.1780E-03
  Element nb      COORD1      COORD2         S11         S22         S33         S12         E11         E22         E33         E12
          35  1.5468E+00  5.3112E-02  8.1381E-01  3.2369E-02  2.5385E-01 -3.0622E-02  7.2794E-03 -2.8793E-03  0.0000E+00 -7.9618E-04
          35  1.5302E+00  1.9822E-01  8.3143E-01  3.8446E-02  2.6096E-01 -3.4554E-02  7.4161E-03 -2.8927E-03  0.0000E+00 -8.9842E-04
          35  1.6913E+00  5.3068E-02  8.0701E-01  1.6497E-02  2.4705E-01 -2.5362E-02  7.2794E-03 -2.9972E-03  0.0000E+00 -6.5942E-04
          35  1.6754E+00  1.9805E-01  8.2467E-01  2.2641E-02  2.5419E-01 -2.9318E-02  7.4162E-03 -3.0102E-03  0.0000E+00 -7.6228E-04
  Element nb      COORD1      COORD2         S11         S22         S33         S12         E11         E22         E33         E12
          36  1.7972E+00  5.3048E-02  8.6251E-01  3.2338E-02  2.6845E-01 -2.0014E-02  7.7227E-03 -3.0695E-03  0.0000E+00 -5.2037E-04
          36  1.7817E+00  1.9798E-01  8.7226E-01  3.5539E-02  2.7234E-01 -2.2897E-02  7.7990E-03 -3.0784E-03  0.0000E+00 -5.9532E-04
          36  1.9417E+00  5.3038E-02  8.5771E-01  2.1124E-02  2.6365E-01 -1.7075E-02  7.7227E-03 -3.1528E-03  0.0000E+00 -4.4396E-04
          36  1.9269E+00  1.9794E-01  8.6748E-01  2.4377E-02  2.6756E-01 -1.9972E-02  7.7990E-03 -3.1613E-03  0.0000E+00 -5.1928E-04
  Element nb      COORD1      COORD2         S11         S22         S33         S12         E11         E22         E33         E12
          37  2.0476E+00  5.3031E-02  8.9568E-01  3.1709E-02  2.7822E-01 -1.3853E-02  8.0271E-03 -3.2046E-03  0.0000E+00 -3.6018E-04
          37  2.0333E+00  1.9792E-01  9.0150E-01  3.3547E-02  2.8051E-01 -1.5999E-02  8.0728E-03 -3.2106E-03  0.0000E+00 -4.1597E-04
          37  2.1922E+00  5.3022E-02  8.9219E-01  2.3568E-02  2.7473E-01 -1.2088E-02  8.0271E-03 -3.2651E-03  0.0000E+00 -3.1429E-04
          37  2.1785E+00  1.9788E-01  8.9803E-01  2.5445E-02  2.7704E-01 -1.4242E-02  8.0728E-03 -3.2708E-03  0.0000E+00 -3.7030E-04
  Element nb      COORD1      COORD2         S11         S22         S33         S12         E11         E22         E33         E12
          38  2.2980E+00  5.3015E-02  9.1953E-01  3.1024E-02  2.8516E-01 -1.0054E-02  8.2467E-03 -3.3038E-03  0.0000E+00 -2.6140E-04
          38  2.2849E+00  1.9785E-01  9.2320E-01  3.2137E-02  2.8660E-01 -1.1740E-02  8.2758E-03 -3.3080E-03  0.0000E+00 -3.0525E-04
          38  2.4426E+00  5.3005E-02  9.1684E-01  2.4747E-02  2.8247E-01 -8.9306E-03  8.2467E-03 -3.3505E-03  0.0000E+00 -2.3220E-04
          38  2.4302E+00  1.9782E-01  9.2052E-01  2.5889E-02  2.8392E-01 -1.0623E-02  8.2758E-03 -3.3545E-03  0.0000E+00 -2.7619E-04
  Element nb      COORD1      COORD2         S11         S22         S33         S12         E11         E22         E33         E12
          39  2.5485E+00  5.2998E-02  9.3744E-01  3.0195E-02  2.9029E-01 -7.5871E-03  8.4129E-03 -3.3812E-03  0.0000E+00 -1.9726E-04
          39  2.5365E+00  1.9779E-01  9.3987E-01  3.0890E-02  2.9123E-01 -8.9888E-03  8.4323E-03 -3.3844E-03  0.0000E+00 -2.3371E-04
          39  2.6930E+00  5.2989E-02  9.3524E-01  2.5056E-02  2.8809E-01 -6.8394E-03  8.4129E-03 -3.4194E-03  0.0000E+00 -1.7783E-04
          39  2.6818E+00  1.9776E-01  9.3768E-01  2.5775E-02  2.8904E-01 -8.2449E-03  8.4323E-03 -3.4224E-03  0.0000E+00 -2.1437E-04
  Element nb      COORD1      COORD2         S11         S22         S33         S12         E11         E22         E33         E12
          40  2.7989E+00  5.2982E-02  9.5140E-01  2.9149E-02  2.9416E-01 -5.9144E-03  8.5440E-03 -3.4452E-03  0.0000E+00 -1.5377E-04
          40  2.7881E+00  1.9773E-01  9.5306E-01  2.9596E-02  2.9480E-01 -7.1268E-03  8.5574E-03 -3.4476E-03  0.0000E+00 -1.8530E-04
          40  2.9435E+00  5.2972E-02  9.4951E-01  2.4755E-02  2.9228E-01 -5.3974E-03  8.5440E-03 -3.4778E-03  0.0000E+00 -1.4033E-04
          40  2.9334E+00  1.9769E-01  9.5119E-01  2.5223E-02  2.9292E-01 -6.6124E-03  8.5574E-03 -3.4801E-03  0.0000E+00 -1.7192E-04
  Element nb      COORD1      COORD2         S11         S22         S33         S12         E11         E22         E33         E12
          41  3.0493E+00  5.2965E-02  9.6258E-01  2.7911E-02  2.9715E-01 -4.7343E-03  8.6506E-03 -3.5001E-03  0.0000E+00 -1.2309E-04
          41  3.0397E+00  1.9767E-01  9.6375E-01  2.8210E-02  2.9759E-01 -5.7974E-03  8.6601E-03 -3.5019E-03  0.0000E+00 -1.5073E-04
          41  3.1939E+00  5.2956E-02  9.6094E-01  2.4089E-02  2.9551E-01 -4.3654E-03  8.6506E-03 -3.5284E-03  0.0000E+00 -1.1350E-04
          41  3.1850E+00  1.9763E-01  9.6212E-01  2.4407E-02  2.9596E-01 -5.4304E-03  8.6601E-03 -3.5302E-03  0.0000E+00 -1.4119E-04
  Element nb      COORD1      COORD2         S11         S22         S33         S12         E11         E22         E33         E12
          42  3.2998E+00  5.2949E-02  9.7171E-01  2.6594E-02  2.9949E-01 -3.8717E-03  8.7388E-03 -3.5477E-03  0.0000E+00 -1.0066E-04
          42  3.2914E+00  1.9761E-01  9.7257E-01  2.6807E-02  2.9981E-01 -4.7887E-03  8.7458E-03 -3.5491E-03  0.0000E+00 -1.2451E-04
          42  3.4443E+00  5.2939E-02  9.7030E-01  2.3315E-02  2.9809E-01 -3.6021E-03  8.7388E-03 -3.5720E-03  0.0000E+00 -9.3654E-05
          42  3.4366E+00  1.9757E-01  9.7117E-01  2.3544E-02  2.9841E-01 -4.5206E-03  8.7458E-03 -3.5733E-03  0.0000E+00 -1.1753E-04
  Element nb      COORD1      COORD2         S11         S22         S33         S12         E11         E22         E33         E12
          43  3.5502E+00  5.2932E-02  9.7925E-01  2.5381E-02  3.0139E-01 -3.2207E-03  8.8122E-03 -3.5881E-03  0.0000E+00 -8.3739E-05
          43  3.5430E+00  1.9755E-01  9.7989E-01  2.5547E-02  3.0163E-01 -3.9703E-03  8.8174E-03 -3.5891E-03  0.0000E+00 -1.0323E-04
          43  3.6948E+00  5.2922E-02  9.7811E-01  2.2711E-02  3.0025E-01 -3.0208E-03  8.8122E-03 -3.6080E-03  0.0000E+00 -7.8541E-05
          43  3.6883E+00  1.9751E-01  9.7875E-01  2.2889E-02  3.0049E-01 -3.7714E-03  8.8174E-03 -3.6088E-03  0.0000E+00 -9.8057E-05
  Element nb      COORD1      COORD2         S11         S22         S33         S12         E11         E22         E33         E12
          44  3.8006E+00  5.2915E-02  9.8549E-01  2.4509E-02  3.0300E-01 -2.7143E-03  8.8723E-03 -3.6204E-03  0.0000E+00 -7.0572E-05
          44  3.7946E+00  1.9748E-01  9.8597E-01  2.4652E-02  3.0319E-01 -3.2551E-03  8.8762E-03 -3.6209E-03  0.0000E+00 -8.4632E-05
          44  3.9452E+00  5.2906E-02  9.8466E-01  2.2585E-02  3.0217E-01 -2.5651E-03  8.8723E-03 -3.6347E-03  0.0000E+00 -6.6693E-05
          44  3.9399E+00  1.9745E-01  9.8515E-01  2.2737E-02  3.0237E-01 -3.1067E-03  8.8762E-03 -3.6352E-03  0.0000E+00 -8.0774E-05
  Element nb      COORD1      COORD2         S11         S22         S33         S12         E11         E22         E33         E12
          45  4.0511E+00  5.2899E-02  9.9056E-01  2.4263E-02  3.0445E-01 -2.3047E-03  8.9195E-03 -3.6424E-03  0.0000E+00 -5.9922E-05
          45  4.0462E+00  1.9742E-01  9.9094E-01  2.4399E-02  3.0460E-01 -2.5741E-03  8.9224E-03 -3.6426E-03  0.0000E+00 -6.6926E-05
          45  4.1957E+00  5.2889E-02  9.9015E-01  2.3302E-02  3.0404E-01 -2.1926E-03  8.9195E-03 -3.6495E-03  0.0000E+00 -5.7008E-05
          45  4.1915E+00  1.9738E-01  9.9053E-01  2.3442E-02  3.0419E-01 -2.4626E-03  8.9224E-03 -3.6497E-03  0.0000E+00 -6.4026E-05
  Element nb      COORD1      COORD2         S11         S22         S33         S12         E11         E22         E33         E12
          46  4.3015E+00  5.2882E-02  9.9452E-01  2.4997E-02  3.0586E-01 -1.9504E-03  8.9527E-03 -3.6512E-03  0.0000E+00 -5.0711E-05
          46  4.2979E+00  1.9736E-01  9.9483E-01  2.5135E-02  3.0599E-01 -1.8551E-03  8.9549E-03 -3.6511E-03  0.0000E+00 -4.8233E-05
          46  4.4461E+00  5.2872E-02  9.9466E-01  2.5325E-02  3.0600E-01 -1.8634E-03  8.9527E-03 -3.6487E-03  0.0000E+00 -4.8449E-05
          46  4.4432E+00  1.9732E-01  9.9497E-01  2.5461E-02  3.0613E-01 -1.7685E-03  8.9549E-03 -3.6487E-03  0.0000E+00 -4.5981E-05
  Element nb      COORD1      COORD2         S11         S22         S33         S12         E11         E22         E33         E12
          47  4.5520E+00  5.2865E-02  9.9726E-01  2.7176E-02  3.0733E-01 -1.6053E-03  8.9691E-03 -3.6420E-03  0.0000E+00 -4.1738E-05
          47  4.5495E+00  1.9729E-01  9.9753E-01  2.7323E-02  3.0746E-01 -1.0035E-03  8.9710E-03 -3.6417E-03  0.0000E+00 -2.6091E-05
          47  4.6966E+00  5.2855E-02  9.9816E-01  2.9292E-02  3.0824E-01 -1.5299E-03  8.9691E-03 -3.6263E-03  0.0000E+00 -3.9777E-05
          47  4.6949E+00  1.9726E-01  9.9844E-01  2.9428E-02  3.0836E-01 -9.2836E-04  8.9710E-03 -3.6261E-03  0.0000E+00 -2.4137E-05
  Element nb      COORD1      COORD2         S11         S22         S33         S12         E11         E22         E33         E12
          48  4.8024E+00  5.2847E-02  9.9846E-01  3.1457E-02  3.0898E-01 -1.2060E-03  8.9633E-03 -3.6077E-03  0.0000E+00 -3.1356E-05
          48  4.8013E+00  1.9723E-01  9.9876E-01  3.1616E-02  3.0911E-01  1.2201E-04  8.9655E-03 -3.6075E-03  0.0000E+00  3.1724E-06
          48  4.9471E+00  5.2835E-02  1.0005E+00  3.6138E-02  3.1098E-01 -1.1232E-03  8.9633E-03 -3.5730E-03  0.0000E+00 -2.9204E-05
          48  4.9468E+00  1.9718E-01  1.0008E+00  3.6271E-02  3.1111E-01  2.0460E-04  8.9655E-03 -3.5729E-03  0.0000E+00  5.3197E-06
  Element nb      COORD1      COORD2         S11         S22         S33         S12         E11         E22         E33         E12
          49  4.9466E+00  3.0285E-01  1.0001E+00  3.4030E-02  3.1025E-01 -1.9240E-03  8.9685E-03 -3.5908E-03  0.0000E+00 -5.0025E-05
          49  4.8007E+00  3.0291E-01  9.9830E-01  2.9753E-02  3.0842E-01 -2.1684E-03  8.9685E-03 -3.6226E-03  0.0000E+00 -5.6377E-05
          49  4.9465E+00  4.4720E-01  1.0010E+00  3.4395E-02  3.1061E-01 -7.1771E-04  8.9748E-03 -3.5908E-03  0.0000E+00 -1.8661E-05
          49  4.8002E+00  4.4727E-01  9.9915E-01  3.0129E-02  3.0878E-01 -9.6154E-04  8.9748E-03 -3.6225E-03  0.0000E+00 -2.5000E-05
  Element nb      COORD1      COORD2         S11         S22         S33         S12         E11         E22         E33         E12
          50  4.9464E+00  5.5286E-01  9.9981E-01  3.0185E-02  3.0900E-01 -2.5568E-03  8.9806E-03 -3.6246E-03  0.0000E+00 -6.6476E-05
          50  4.8000E+00  5.5294E-01  9.9830E-01  2.6666E-02  3.0749E-01 -2.9374E-03  8.9806E-03 -3.6507E-03  0.0000E+00 -7.6372E-05
          50  4.9464E+00  6.9720E-01  1.0011E+00  3.0747E-02  3.0956E-01 -1.5661E-03  8.9903E-03 -3.6246E-03  0.0000E+00 -4.0718E-05
          50  4.7999E+00  6.9728E-01  9.9962E-01  2.7230E-02  3.0805E-01 -1.9465E-03  8.9903E-03 -3.6507E-03  0.0000E+00 -5.0610E-05
  Element nb      COORD1      COORD2         S11         S22         S33         S12         E11         E22         E33         E12
          51  4.9464E+00  8.0286E-01  9.9953E-01  2.4965E-02  3.0735E-01 -2.9435E-03  8.9983E-03 -3.6710E-03  0.0000E+00 -7.6531E-05
          51  4.7999E+00  8.0294E-01  9.9847E-01  2.2492E-02  3.0629E-01 -3.4225E-03  8.9983E-03 -3.6893E-03  0.0000E+00 -8.8984E-05
          51  4.9464E+00  9.4720E-01  1.0012E+00  2.5672E-02  3.0805E-01 -2.2469E-03  9.0106E-03 -3.6710E-03  0.0000E+00 -5.8420E-05
          51  4.8001E+00  9.4727E-01  1.0001E+00  2.3197E-02  3.0699E-01 -2.7262E-03  9.0106E-03 -3.6894E-03  0.0000E+00 -7.0881E-05
  Element nb      COORD1      COORD2         S11         S22         S33         S12         E11         E22         E33         E12
          52  4.9465E+00  1.0529E+00  9.9931E-01  1.8896E-02  3.0546E-01 -3.0333E-03  9.0200E-03 -3.7254E-03  0.0000E+00 -7.8866E-05
          52  4.8002E+00  1.0529E+00  9.9877E-01  1.7636E-02  3.0492E-01 -3.5623E-03  9.0200E-03 -3.7347E-03  0.0000E+00 -9.2620E-05
          52  4.9465E+00  1.1972E+00  1.0011E+00  1.9679E-02  3.0625E-01 -2.6780E-03  9.0336E-03 -3.7254E-03  0.0000E+00 -6.9627E-05
          52  4.8004E+00  1.1973E+00  1.0006E+00  1.8417E-02  3.0570E-01 -3.2075E-03  9.0336E-03 -3.7347E-03  0.0000E+00 -8.3395E-05
  Element nb      COORD1      COORD2         S11         S22         S33         S12         E11         E22         E33         E12
          53  4.9466E+00  1.3029E+00  9.9921E-01  1.2638E-02  3.0355E-01 -2.8006E-03  9.0435E-03 -3.7819E-03  0.0000E+00 -7.2814E-05
          53  4.8006E+00  1.3029E+00  9.9919E-01  1.2590E-02  3.0353E-01 -3.3237E-03  9.0435E-03 -3.7823E-03  0.0000E+00 -8.6417E-05
          53  4.9466E+00  1.4472E+00  1.0010E+00  1.3415E-02  3.0433E-01 -2.7872E-03  9.0570E-03 -3.7819E-03  0.0000E+00 -7.2467E-05
          53  4.8008E+00  1.4472E+00  1.0010E+00  1.3366E-02  3.0431E-01 -3.3110E-03  9.0570E-03 -3.7823E-03  0.0000E+00 -8.6087E-05
  Element nb      COORD1      COORD2         S11         S22         S33         S12         E11         E22         E33         E12
          54  4.9467E+00  1.5528E+00  9.9926E-01  6.9441E-03  3.0186E-01 -2.2483E-03  9.0662E-03 -3.8339E-03  0.0000E+00 -5.8456E-05
          54  4.8010E+00  1.5529E+00  9.9967E-01  7.8862E-03  3.0227E-01 -2.7052E-03  9.0662E-03 -3.8269E-03  0.0000E+00 -7.0335E-05
          54  4.9468E+00  1.6972E+00  1.0009E+00  7.6247E-03  3.0254E-01 -2.5157E-03  9.0780E-03 -3.8339E-03  0.0000E+00 -6.5407E-05
          54  4.8013E+00  1.6972E+00  1.0013E+00  8.5681E-03  3.0295E-01 -2.9732E-03  9.0780E-03 -3.8269E-03  0.0000E+00 -7.7303E-05
  Element nb      COORD1      COORD2         S11         S22         S33         S12         E11         E22         E33         E12
          55  4.9468E+00  1.8028E+00  9.9952E-01  2.5992E-03  3.0063E-01 -1.4256E-03  9.0855E-03 -3.8745E-03  0.0000E+00 -3.7066E-05
          55  4.8015E+00  1.8029E+00  1.0001E+00  4.0364E-03  3.0125E-01 -1.7546E-03  9.0855E-03 -3.8638E-03  0.0000E+00 -4.5619E-05
          55  4.9469E+00  1.9472E+00  1.0007E+00  3.0908E-03  3.0113E-01 -1.8342E-03  9.0940E-03 -3.8745E-03  0.0000E+00 -4.7689E-05
          55  4.8018E+00  1.9472E+00  1.0013E+00  4.5300E-03  3.0174E-01 -2.1636E-03  9.0940E-03 -3.8638E-03  0.0000E+00 -5.6255E-05
  Element nb      COORD1      COORD2         S11         S22         S33         S12         E11         E22         E33         E12
          56  4.9469E+00  2.0528E+00  9.9994E-01  2.6588E-04  3.0006E-01 -4.9067E-04  9.0984E-03 -3.8973E-03  0.0000E+00 -1.2758E-05
          56  4.8020E+00  2.0529E+00  1.0004E+00  1.4427E-03  3.0057E-01 -6.2682E-04  9.0984E-03 -3.8886E-03  0.0000E+00 -1.6297E-05
          56  4.9470E+00  2.1972E+00  1.0004E+00  4.7018E-04  3.0026E-01 -8.2597E-04  9.1019E-03 -3.8973E-03  0.0000E+00 -2.1475E-05
          56  4.8022E+00  2.1972E+00  1.0009E+00  1.6486E-03  3.0077E-01 -9.6233E-04  9.1019E-03 -3.8886E-03  0.0000E+00 -2.5021E-05
  Element nb      COORD1      COORD2         S11         S22         S33         S12         E11         E22         E33         E12
          57  4.9471E+00  2.3028E+00  1.0002E+00 -6.3215E-05  3.0004E-01  1.0090E-04  9.1020E-03 -3.9013E-03  0.0000E+00  2.6235E-06
          57  4.8025E+00  2.3028E+00  1.0004E+00  3.6817E-04  3.0022E-01  2.2847E-04  9.1020E-03 -3.8981E-03  0.0000E+00  5.9403E-06
          57  4.9471E+00  2.4472E+00  9.9975E-01 -2.5422E-04  2.9985E-01 -2.2208E-05  9.0987E-03 -3.9013E-03  0.0000E+00 -5.7742E-07
          57  4.8027E+00  2.4472E+00  9.9993E-01  1.7777E-04  3.0003E-01  1.0553E-04  9.0987E-03 -3.8981E-03  0.0000E+00  2.7439E-06
  Element nb      COORD1      COORD2         S11         S22         S33         S12         E11         E22         E33         E12
          58  4.6940E+00  3.0295E-01  9.9804E-01  2.7763E-02  3.0774E-01 -3.8417E-03  8.9739E-03 -3.6397E-03  0.0000E+00 -9.9884E-05
          58  4.5482E+00  3.0301E-01  9.9720E-01  2.5817E-02  3.0691E-01 -4.0746E-03  8.9739E-03 -3.6542E-03  0.0000E+00 -1.0594E-04
          58  4.6932E+00  4.4732E-01  9.9885E-01  2.8118E-02  3.0809E-01 -3.2910E-03  8.9799E-03 -3.6396E-03  0.0000E+00 -8.5567E-05
          58  4.5471E+00  4.4739E-01  9.9802E-01  2.6177E-02  3.0726E-01 -3.5234E-03  8.9799E-03 -3.6541E-03  0.0000E+00 -9.1608E-05
  Element nb      COORD1      COORD2         S11         S22         S33         S12         E11         E22         E33         E12
          59  4.6929E+00  5.5300E-01  9.9815E-01  2.5044E-02  3.0696E-01 -5.7977E-03  8.9855E-03 -3.6649E-03  0.0000E+00 -1.5074E-04
          59  4.5466E+00  5.5307E-01  9.9743E-01  2.3378E-02  3.0624E-01 -6.1661E-03  8.9855E-03 -3.6772E-03  0.0000E+00 -1.6032E-04
          59  4.6927E+00  6.9734E-01  9.9942E-01  2.5590E-02  3.0750E-01 -5.3280E-03  8.9949E-03 -3.6649E-03  0.0000E+00 -1.3853E-04
          59  4.5463E+00  6.9742E-01  9.9870E-01  2.3925E-02  3.0679E-01 -5.6961E-03  8.9949E-03 -3.6772E-03  0.0000E+00 -1.4810E-04
  Element nb      COORD1      COORD2         S11         S22         S33         S12         E11         E22         E33         E12
          60  4.6927E+00  8.0300E-01  9.9847E-01  2.1378E-02  3.0596E-01 -7.1890E-03  9.0027E-03 -3.6995E-03  0.0000E+00 -1.8691E-04
          60  4.5464E+00  8.0308E-01  9.9791E-01  2.0079E-02  3.0540E-01 -7.6585E-03  9.0027E-03 -3.7091E-03  0.0000E+00 -1.9912E-04
          60  4.6929E+00  9.4733E-01  1.0001E+00  2.2071E-02  3.0665E-01 -6.8236E-03  9.0148E-03 -3.6995E-03  0.0000E+00 -1.7741E-04
          60  4.5466E+00  9.4741E-01  9.9953E-01  2.0772E-02  3.0609E-01 -7.2933E-03  9.0148E-03 -3.7092E-03  0.0000E+00 -1.8963E-04
  Element nb      COORD1      COORD2         S11         S22         S33         S12         E11         E22         E33         E12
          61  4.6931E+00  1.0530E+00  9.9899E-01  1.7108E-02  3.0483E-01 -7.8583E-03  9.0241E-03 -3.7404E-03  0.0000E+00 -2.0432E-04
          61  4.5469E+00  1.0531E+00  9.9861E-01  1.6210E-02  3.0445E-01 -8.3876E-03  9.0241E-03 -3.7471E-03  0.0000E+00 -2.1808E-04
          61  4.6934E+00  1.1973E+00  1.0008E+00  1.7890E-02  3.0561E-01 -7.6061E-03  9.0377E-03 -3.7404E-03  0.0000E+00 -1.9776E-04
          61  4.5474E+00  1.1974E+00  1.0004E+00  1.6991E-02  3.0523E-01 -8.1359E-03  9.0377E-03 -3.7471E-03  0.0000E+00 -2.1153E-04
  Element nb      COORD1      COORD2         S11         S22         S33         S12         E11         E22         E33         E12
          62  4.6937E+00  1.3030E+00  9.9968E-01  1.2650E-02  3.0370E-01 -7.7106E-03  9.0478E-03 -3.7837E-03  0.0000E+00 -2.0048E-04
          62  4.5477E+00  1.3030E+00  9.9945E-01  1.2102E-02  3.0347E-01 -8.2534E-03  9.0478E-03 -3.7877E-03  0.0000E+00 -2.1459E-04
          62  4.6941E+00  1.4473E+00  1.0016E+00  1.3455E-02  3.0451E-01 -7.5571E-03  9.0618E-03 -3.7837E-03  0.0000E+00 -1.9648E-04
          62  4.5483E+00  1.4473E+00  1.0013E+00  1.2906E-02  3.0427E-01 -8.1005E-03  9.0618E-03 -3.7877E-03  0.0000E+00 -2.1061E-04
  Element nb      COORD1      COORD2         S11         S22         S33         S12         E11         E22         E33         E12
          63  4.6944E+00  1.5529E+00  1.0005E+00  8.4480E-03  3.0269E-01 -6.7273E-03  9.0716E-03 -3.8251E-03  0.0000E+00 -1.7491E-04
          63  4.5487E+00  1.5530E+00  1.0004E+00  8.1022E-03  3.0254E-01 -7.2317E-03  9.0716E-03 -3.8277E-03  0.0000E+00 -1.8802E-04
          63  4.6948E+00  1.6973E+00  1.0023E+00  9.1976E-03  3.0344E-01 -6.6308E-03  9.0847E-03 -3.8251E-03  0.0000E+00 -1.7240E-04
          63  4.5494E+00  1.6973E+00  1.0021E+00  8.8514E-03  3.0329E-01 -7.1359E-03  9.0847E-03 -3.8277E-03  0.0000E+00 -1.8553E-04
  Element nb      COORD1      COORD2         S11         S22         S33         S12         E11         E22         E33         E12
          64  4.6951E+00  1.8029E+00  1.0014E+00  4.9048E-03  3.0188E-01 -5.0063E-03  9.0932E-03 -3.8607E-03  0.0000E+00 -1.3016E-04
          64  4.5498E+00  1.8029E+00  1.0012E+00  4.5494E-03  3.0173E-01 -5.4050E-03  9.0932E-03 -3.8633E-03  0.0000E+00 -1.4053E-04
          64  4.6955E+00  1.9472E+00  1.0027E+00  5.4984E-03  3.0247E-01 -4.9065E-03  9.1035E-03 -3.8607E-03  0.0000E+00 -1.2757E-04
          64  4.5504E+00  1.9473E+00  1.0026E+00  5.1426E-03  3.0232E-01 -5.3058E-03  9.1035E-03 -3.8633E-03  0.0000E+00 -1.3795E-04
  Element nb      COORD1      COORD2         S11         S22         S33         S12         E11         E22         E33         E12
          65  4.6958E+00  2.0529E+00  1.0020E+00  2.3143E-03  3.0129E-01 -2.8541E-03  9.1089E-03 -3.8866E-03  0.0000E+00 -7.4208E-05
          65  4.5509E+00  2.0529E+00  1.0018E+00  1.8053E-03  3.0107E-01 -3.0275E-03  9.1089E-03 -3.8904E-03  0.0000E+00 -7.8715E-05
          65  4.6963E+00  2.1972E+00  1.0026E+00  2.5720E-03  3.0155E-01 -2.7097E-03  9.1134E-03 -3.8867E-03  0.0000E+00 -7.0452E-05
          65  4.5515E+00  2.1972E+00  1.0024E+00  2.0623E-03  3.0133E-01 -2.8833E-03  9.1134E-03 -3.8904E-03  0.0000E+00 -7.4965E-05
  Element nb      COORD1      COORD2         S11         S22         S33         S12         E11         E22         E33         E12
          66  4.6966E+00  2.3029E+00  1.0017E+00  9.2534E-04  3.0078E-01 -9.5855E-04  9.1117E-03 -3.8982E-03  0.0000E+00 -2.4922E-05
          66  4.5520E+00  2.3029E+00  1.0015E+00  4.5128E-04  3.0058E-01 -6.0482E-04  9.1117E-03 -3.9017E-03  0.0000E+00 -1.5725E-05
          66  4.6970E+00  2.4472E+00  1.0004E+00  3.9369E-04  3.0025E-01 -8.2214E-04  9.1025E-03 -3.8982E-03  0.0000E+00 -2.1376E-05
          66  4.5526E+00  2.4472E+00  1.0002E+00 -8.1071E-05  3.0005E-01 -4.6790E-04  9.1025E-03 -3.9017E-03  0.0000E+00 -1.2165E-05
  Element nb      COORD1      COORD2         S11         S22         S33         S12         E11         E22         E33         E12
          67  4.4416E+00  3.0304E-01  9.9476E-01  2.4066E-02  3.0565E-01 -5.3190E-03  8.9585E-03 -3.6606E-03  0.0000E+00 -1.3829E-04
          67  4.2959E+00  3.0310E-01  9.9462E-01  2.3749E-02  3.0551E-01 -5.6091E-03  8.9585E-03 -3.6629E-03  0.0000E+00 -1.4584E-04
          67  4.4402E+00  4.4744E-01  9.9576E-01  2.4499E-02  3.0608E-01 -5.2268E-03  8.9659E-03 -3.6605E-03  0.0000E+00 -1.3590E-04
          67  4.2941E+00  4.4750E-01  9.9563E-01  2.4183E-02  3.0594E-01 -5.5162E-03  8.9659E-03 -3.6629E-03  0.0000E+00 -1.4342E-04
  Element nb      COORD1      COORD2         S11         S22         S33         S12         E11         E22         E33         E12
          68  4.4395E+00  5.5312E-01  9.9543E-01  2.1905E-02  3.0520E-01 -8.2828E-03  8.9730E-03 -3.6828E-03  0.0000E+00 -2.1535E-04
          68  4.2933E+00  5.5320E-01  9.9527E-01  2.1545E-02  3.0505E-01 -8.7490E-03  8.9730E-03 -3.6855E-03  0.0000E+00 -2.2747E-04
          68  4.4392E+00  6.9747E-01  9.9704E-01  2.2595E-02  3.0589E-01 -8.1806E-03  8.9849E-03 -3.6828E-03  0.0000E+00 -2.1269E-04
          68  4.2929E+00  6.9755E-01  9.9688E-01  2.2236E-02  3.0574E-01 -8.6465E-03  8.9849E-03 -3.6855E-03  0.0000E+00 -2.2481E-04
  Element nb      COORD1      COORD2         S11         S22         S33         S12         E11         E22         E33         E12
          69  4.4392E+00  8.0314E-01  9.9660E-01  1.9011E-02  3.0468E-01 -1.0452E-02  8.9949E-03 -3.7137E-03  0.0000E+00 -2.7175E-04
          69  4.2929E+00  8.0321E-01  9.9641E-01  1.8578E-02  3.0450E-01 -1.1052E-02  8.9949E-03 -3.7169E-03  0.0000E+00 -2.8734E-04
          69  4.4395E+00  9.4746E-01  9.9867E-01  1.9898E-02  3.0557E-01 -1.0331E-02  9.0103E-03 -3.7137E-03  0.0000E+00 -2.6861E-04
          69  4.2932E+00  9.4754E-01  9.9848E-01  1.9465E-02  3.0538E-01 -1.0931E-02  9.0103E-03 -3.7169E-03  0.0000E+00 -2.8421E-04
  Element nb      COORD1      COORD2         S11         S22         S33         S12         E11         E22         E33         E12
          70  4.4398E+00  1.0531E+00  9.9816E-01  1.5620E-02  3.0413E-01 -1.1605E-02  9.0223E-03 -3.7507E-03  0.0000E+00 -3.0174E-04
          70  4.2936E+00  1.0532E+00  9.9793E-01  1.5089E-02  3.0391E-01 -1.2289E-02  9.0223E-03 -3.7546E-03  0.0000E+00 -3.1951E-04
          70  4.4404E+00  1.1974E+00  1.0005E+00  1.6630E-02  3.0515E-01 -1.1458E-02  9.0399E-03 -3.7507E-03  0.0000E+00 -2.9792E-04
          70  4.2943E+00  1.1975E+00  1.0003E+00  1.6099E-02  3.0492E-01 -1.2143E-02  9.0399E-03 -3.7546E-03  0.0000E+00 -3.1571E-04
  Element nb      COORD1      COORD2         S11         S22         S33         S12         E11         E22         E33         E12
          71  4.4409E+00  1.3031E+00  9.9998E-01  1.2005E-02  3.0360E-01 -1.1617E-02  9.0530E-03 -3.7907E-03  0.0000E+00 -3.0205E-04
          71  4.2949E+00  1.3031E+00  9.9970E-01  1.1341E-02  3.0331E-01 -1.2329E-02  9.0530E-03 -3.7956E-03  0.0000E+00 -3.2056E-04
          71  4.4416E+00  1.4474E+00  1.0024E+00  1.3058E-02  3.0465E-01 -1.1433E-02  9.0713E-03 -3.7907E-03  0.0000E+00 -2.9726E-04
          71  4.2958E+00  1.4474E+00  1.0022E+00  1.2394E-02  3.0437E-01 -1.2146E-02  9.0713E-03 -3.7956E-03  0.0000E+00 -3.1579E-04
  Element nb      COORD1      COORD2         S11         S22         S33         S12         E11         E22         E33         E12
          72  4.4421E+00  1.5530E+00  1.0019E+00  8.4502E-03  3.0311E-01 -1.0473E-02  9.0844E-03 -3.8305E-03  0.0000E+00 -2.7230E-04
          72  4.2965E+00  1.5531E+00  1.0015E+00  7.6120E-03  3.0275E-01 -1.1145E-02  9.0844E-03 -3.8368E-03  0.0000E+00 -2.8978E-04
          72  4.4429E+00  1.6973E+00  1.0042E+00  9.4462E-03  3.0410E-01 -1.0239E-02  9.1017E-03 -3.8306E-03  0.0000E+00 -2.6622E-04
          72  4.2974E+00  1.6974E+00  1.0039E+00  8.6069E-03  3.0375E-01 -1.0912E-02  9.1017E-03 -3.8368E-03  0.0000E+00 -2.8372E-04
  Element nb      COORD1      COORD2         S11         S22         S33         S12         E11         E22         E33         E12
          73  4.4434E+00  1.8030E+00  1.0037E+00  5.2351E-03  3.0268E-01 -8.2974E-03  9.1131E-03 -3.8667E-03  0.0000E+00 -2.1573E-04
          73  4.2981E+00  1.8030E+00  1.0032E+00  4.2078E-03  3.0224E-01 -8.8297E-03  9.1131E-03 -3.8744E-03  0.0000E+00 -2.2957E-04
          73  4.4442E+00  1.9473E+00  1.0055E+00  6.0235E-03  3.0347E-01 -8.0084E-03  9.1269E-03 -3.8668E-03  0.0000E+00 -2.0822E-04
          73  4.2991E+00  1.9473E+00  1.0051E+00  4.9948E-03  3.0303E-01 -8.5414E-03  9.1269E-03 -3.8744E-03  0.0000E+00 -2.2208E-04
  Element nb      COORD1      COORD2         S11         S22         S33         S12         E11         E22         E33         E12
          74  4.4448E+00  2.0529E+00  1.0049E+00  2.6783E-03  3.0227E-01 -5.3935E-03  9.1339E-03 -3.8946E-03  0.0000E+00 -1.4023E-04
          74  4.2998E+00  2.0529E+00  1.0044E+00  1.5313E-03  3.0177E-01 -5.6044E-03  9.1339E-03 -3.9032E-03  0.0000E+00 -1.4571E-04
          74  4.4455E+00  2.1972E+00  1.0056E+00  2.9874E-03  3.0258E-01 -5.0680E-03  9.1394E-03 -3.8947E-03  0.0000E+00 -1.3177E-04
          74  4.3008E+00  2.1972E+00  1.0051E+00  1.8388E-03  3.0209E-01 -5.2791E-03  9.1394E-03 -3.9032E-03  0.0000E+00 -1.3726E-04
  Element nb      COORD1      COORD2         S11         S22         S33         S12         E11         E22         E33         E12
          75  4.4461E+00  2.3029E+00  1.0047E+00  1.3535E-03  3.0180E-01 -2.2171E-03  9.1371E-03 -3.9059E-03  0.0000E+00 -5.7645E-05
          75  4.3015E+00  2.3029E+00  1.0042E+00  2.0038E-04  3.0131E-01 -1.7674E-03  9.1371E-03 -3.9144E-03  0.0000E+00 -4.5954E-05
          75  4.4469E+00  2.4472E+00  1.0031E+00  6.7330E-04  3.0113E-01 -1.8855E-03  9.1254E-03 -3.9059E-03  0.0000E+00 -4.9022E-05
          75  4.3025E+00  2.4472E+00  1.0026E+00 -4.8150E-04  3.0063E-01 -1.4351E-03  9.1254E-03 -3.9145E-03  0.0000E+00 -3.7314E-05
  Element nb      COORD1      COORD2         S11         S22         S33         S12         E11         E22         E33         E12
          76  4.1892E+00  3.0313E-01  9.9048E-01  2.2108E-02  3.0378E-01 -6.6330E-03  8.9272E-03 -3.6617E-03  0.0000E+00 -1.7246E-04
          76  4.0436E+00  3.0318E-01  9.9085E-01  2.2963E-02  3.0414E-01 -7.0310E-03  8.9272E-03 -3.6554E-03  0.0000E+00 -1.8281E-04
          76  4.1872E+00  4.4755E-01  9.9186E-01  2.2686E-02  3.0436E-01 -6.8691E-03  8.9374E-03 -3.6618E-03  0.0000E+00 -1.7860E-04
          76  4.0412E+00  4.4761E-01  9.9222E-01  2.3539E-02  3.0473E-01 -7.2661E-03  8.9374E-03 -3.6555E-03  0.0000E+00 -1.8892E-04
  Element nb      COORD1      COORD2         S11         S22         S33         S12         E11         E22         E33         E12
          77  4.1863E+00  5.5325E-01  9.9183E-01  2.0126E-02  3.0359E-01 -1.0464E-02  8.9472E-03 -3.6850E-03  0.0000E+00 -2.7206E-04
          77  4.0401E+00  5.5332E-01  9.9208E-01  2.0713E-02  3.0384E-01 -1.1108E-02  8.9472E-03 -3.6806E-03  0.0000E+00 -2.8880E-04
          77  4.1858E+00  6.9760E-01  9.9405E-01  2.1077E-02  3.0454E-01 -1.0627E-02  8.9637E-03 -3.6850E-03  0.0000E+00 -2.7631E-04
          77  4.0395E+00  6.9768E-01  9.9430E-01  2.1664E-02  3.0479E-01 -1.1271E-02  8.9637E-03 -3.6806E-03  0.0000E+00 -2.9304E-04
  Element nb      COORD1      COORD2         S11         S22         S33         S12         E11         E22         E33         E12
          78  4.1857E+00  8.0327E-01  9.9404E-01  1.7510E-02  3.0346E-01 -1.3309E-02  8.9774E-03 -3.7174E-03  0.0000E+00 -3.4604E-04
          78  4.0394E+00  8.0334E-01  9.9413E-01  1.7731E-02  3.0356E-01 -1.4136E-02  8.9774E-03 -3.7158E-03  0.0000E+00 -3.6752E-04
          78  4.1861E+00  9.4759E-01  9.9689E-01  1.8734E-02  3.0469E-01 -1.3374E-02  8.9986E-03 -3.7174E-03  0.0000E+00 -3.4772E-04
          78  4.0399E+00  9.4766E-01  9.9698E-01  1.8955E-02  3.0478E-01 -1.4201E-02  8.9986E-03 -3.7157E-03  0.0000E+00 -3.6921E-04
  Element nb      COORD1      COORD2         S11         S22         S33         S12         E11         E22         E33         E12
          79  4.1866E+00  1.0532E+00  9.9687E-01  1.4453E-02  3.0340E-01 -1.4905E-02  9.0152E-03 -3.7563E-03  0.0000E+00 -3.8754E-04
          79  4.0404E+00  1.0533E+00  9.9679E-01  1.4266E-02  3.0332E-01 -1.5842E-02  9.0152E-03 -3.7577E-03  0.0000E+00 -4.1190E-04
          79  4.1874E+00  1.1975E+00  1.0001E+00  1.5840E-02  3.0479E-01 -1.4858E-02  9.0392E-03 -3.7563E-03  0.0000E+00 -3.8631E-04
          79  4.0413E+00  1.1976E+00  1.0000E+00  1.5653E-02  3.0471E-01 -1.5796E-02  9.0392E-03 -3.7577E-03  0.0000E+00 -4.1070E-04
  Element nb      COORD1      COORD2         S11         S22         S33         S12         E11         E22         E33         E12
          80  4.1881E+00  1.3032E+00  1.0001E+00  1.1172E-02  3.0338E-01 -1.5111E-02  9.0572E-03 -3.7987E-03  0.0000E+00 -3.9288E-04
          80  4.0421E+00  1.3032E+00  9.9983E-01  1.0579E-02  3.0312E-01 -1.6081E-02  9.0572E-03 -3.8031E-03  0.0000E+00 -4.1811E-04
          80  4.1891E+00  1.4475E+00  1.0034E+00  1.2609E-02  3.0482E-01 -1.4950E-02  9.0822E-03 -3.7987E-03  0.0000E+00 -3.8869E-04
          80  4.0433E+00  1.4475E+00  1.0032E+00  1.2015E-02  3.0456E-01 -1.5921E-02  9.0821E-03 -3.8031E-03  0.0000E+00 -4.1395E-04
  Element nb      COORD1      COORD2         S11         S22         S33         S12         E11         E22         E33         E12
          81  4.1899E+00  1.5531E+00  1.0034E+00  7.9022E-03  3.0338E-01 -1.3908E-02  9.0999E-03 -3.8413E-03  0.0000E+00 -3.6161E-04
          81  4.0442E+00  1.5532E+00  1.0030E+00  6.9355E-03  3.0297E-01 -1.4821E-02  9.0999E-03 -3.8484E-03  0.0000E+00 -3.8534E-04
          81  4.1909E+00  1.6974E+00  1.0065E+00  9.2528E-03  3.0474E-01 -1.3641E-02  9.1235E-03 -3.8413E-03  0.0000E+00 -3.5467E-04
          81  4.0455E+00  1.6974E+00  1.0061E+00  8.2849E-03  3.0432E-01 -1.4555E-02  9.1234E-03 -3.8485E-03  0.0000E+00 -3.7842E-04
  Element nb      COORD1      COORD2         S11         S22         S33         S12         E11         E22         E33         E12
          82  4.1917E+00  1.8030E+00  1.0064E+00  4.9107E-03  3.0339E-01 -1.1401E-02  9.1390E-03 -3.8802E-03  0.0000E+00 -2.9643E-04
          82  4.0464E+00  1.8031E+00  1.0058E+00  3.6375E-03  3.0284E-01 -1.2128E-02  9.1390E-03 -3.8897E-03  0.0000E+00 -3.1534E-04
          82  4.1929E+00  1.9473E+00  1.0089E+00  5.9854E-03  3.0447E-01 -1.1045E-02  9.1578E-03 -3.8803E-03  0.0000E+00 -2.8717E-04
          82  4.0477E+00  1.9474E+00  1.0084E+00  4.7105E-03  3.0392E-01 -1.1773E-02  9.1578E-03 -3.8898E-03  0.0000E+00 -3.0610E-04
  Element nb      COORD1      COORD2         S11         S22         S33         S12         E11         E22         E33         E12
          83  4.1937E+00  2.0530E+00  1.0086E+00  2.5755E-03  3.0334E-01 -7.7887E-03  9.1679E-03 -3.9100E-03  0.0000E+00 -2.0251E-04
          83  4.0487E+00  2.0530E+00  1.0079E+00  1.0775E-03  3.0270E-01 -8.1332E-03  9.1679E-03 -3.9211E-03  0.0000E+00 -2.1146E-04
          83  4.1948E+00  2.1973E+00  1.0098E+00  3.0789E-03  3.0385E-01 -7.3648E-03  9.1769E-03 -3.9101E-03  0.0000E+00 -1.9148E-04
          83  4.0500E+00  2.1973E+00  1.0091E+00  1.5789E-03  3.0321E-01 -7.7098E-03  9.1769E-03 -3.9212E-03  0.0000E+00 -2.0046E-04
  Element nb      COORD1      COORD2         S11         S22         S33         S12         E11         E22         E33         E12
          84  4.1956E+00  2.3029E+00  1.0091E+00  1.4983E-03  3.0318E-01 -3.2697E-03  9.1770E-03 -3.9219E-03  0.0000E+00 -8.5011E-05
          84  4.0510E+00  2.3029E+00  1.0084E+00 -2.0901E-04  3.0245E-01 -2.9376E-03  9.1770E-03 -3.9345E-03  0.0000E+00 -7.6377E-05
          84  4.1968E+00  2.4472E+00  1.0079E+00  9.8727E-04  3.0268E-01 -2.7797E-03  9.1684E-03 -3.9220E-03  0.0000E+00 -7.2271E-05
          84  4.0523E+00  2.4472E+00  1.0072E+00 -7.2250E-04  3.0194E-01 -2.4471E-03  9.1684E-03 -3.9347E-03  0.0000E+00 -6.3625E-05
  Element nb      COORD1      COORD2         S11         S22         S33         S12         E11         E22         E33         E12
          85  3.9369E+00  3.0322E-01  9.8526E-01  2.1306E-02  3.0197E-01 -7.9722E-03  8.8828E-03 -3.6486E-03  0.0000E+00 -2.0728E-04
          85  3.7913E+00  3.0327E-01  9.8599E-01  2.3023E-02  3.0270E-01 -8.5220E-03  8.8827E-03 -3.6359E-03  0.0000E+00 -2.2157E-04
          85  3.9343E+00  4.4766E-01  9.8715E-01  2.2091E-02  3.0277E-01 -8.4473E-03  8.8969E-03 -3.6489E-03  0.0000E+00 -2.1963E-04
          85  3.7882E+00  4.4773E-01  9.8788E-01  2.3803E-02  3.0351E-01 -8.9957E-03  8.8969E-03 -3.6361E-03  0.0000E+00 -2.3389E-04
  Element nb      COORD1      COORD2         S11         S22         S33         S12         E11         E22         E33         E12
          86  3.9330E+00  5.5337E-01  9.8741E-01  1.9253E-02  3.0200E-01 -1.2640E-02  8.9104E-03 -3.6757E-03  0.0000E+00 -3.2865E-04
          86  3.7868E+00  5.5344E-01  9.8795E-01  2.0517E-02  3.0254E-01 -1.3528E-02  8.9103E-03 -3.6663E-03  0.0000E+00 -3.5172E-04
          86  3.9324E+00  6.9773E-01  9.9047E-01  2.0561E-02  3.0331E-01 -1.2993E-02  8.9331E-03 -3.6757E-03  0.0000E+00 -3.3781E-04
          86  3.7861E+00  6.9781E-01  9.9101E-01  2.1824E-02  3.0385E-01 -1.3879E-02  8.9331E-03 -3.6664E-03  0.0000E+00 -3.6086E-04
  Element nb      COORD1      COORD2         S11         S22         S33         S12         E11         E22         E33         E12
          87  3.9323E+00  8.0340E-01  9.9085E-01  1.6607E-02  3.0224E-01 -1.6121E-02  8.9520E-03 -3.7132E-03  0.0000E+00 -4.1915E-04
          87  3.7860E+00  8.0347E-01  9.9114E-01  1.7280E-02  3.0253E-01 -1.7249E-02  8.9520E-03 -3.7082E-03  0.0000E+00 -4.4848E-04
          87  3.9328E+00  9.4772E-01  9.9475E-01  1.8279E-02  3.0391E-01 -1.6315E-02  8.9809E-03 -3.7132E-03  0.0000E+00 -4.2419E-04
          87  3.7865E+00  9.4779E-01  9.9504E-01  1.8952E-02  3.0420E-01 -1.7444E-02  8.9809E-03 -3.7082E-03  0.0000E+00 -4.5353E-04
  Element nb      COORD1      COORD2         S11         S22         S33         S12         E11         E22         E33         E12
          88  3.9334E+00  1.0534E+00  9.9520E-01  1.3573E-02  3.0263E-01 -1.8117E-02  9.0034E-03 -3.7578E-03  0.0000E+00 -4.7105E-04
          88  3.7872E+00  1.0534E+00  9.9522E-01  1.3623E-02  3.0265E-01 -1.9381E-02  9.0034E-03 -3.7574E-03  0.0000E+00 -5.0390E-04
          88  3.9344E+00  1.1977E+00  9.9957E-01  1.5447E-02  3.0451E-01 -1.8141E-02  9.0358E-03 -3.7578E-03  0.0000E+00 -4.7166E-04
          88  3.7884E+00  1.1977E+00  9.9959E-01  1.5497E-02  3.0453E-01 -1.9406E-02  9.0358E-03 -3.7574E-03  0.0000E+00 -5.0455E-04
  Element nb      COORD1      COORD2         S11         S22         S33         S12         E11         E22         E33         E12
          89  3.9353E+00  1.3033E+00  1.0000E+00  1.0373E-02  3.0312E-01 -1.8481E-02  9.0599E-03 -3.8058E-03  0.0000E+00 -4.8051E-04
          89  3.7893E+00  1.3033E+00  9.9981E-01  9.8433E-03  3.0290E-01 -1.9776E-02  9.0599E-03 -3.8097E-03  0.0000E+00 -5.1417E-04
          89  3.9366E+00  1.4476E+00  1.0045E+00  1.2290E-02  3.0504E-01 -1.8343E-02  9.0932E-03 -3.8058E-03  0.0000E+00 -4.7693E-04
          89  3.7908E+00  1.4476E+00  1.0043E+00  1.1760E-02  3.0482E-01 -1.9639E-02  9.0932E-03 -3.8097E-03  0.0000E+00 -5.1062E-04
  Element nb      COORD1      COORD2         S11         S22         S33         S12         E11         E22         E33         E12
          90  3.9376E+00  1.5532E+00  1.0050E+00  7.2375E-03  3.0366E-01 -1.7194E-02  9.1169E-03 -3.8535E-03  0.0000E+00 -4.4704E-04
          90  3.7920E+00  1.5532E+00  1.0045E+00  6.2128E-03  3.0322E-01 -1.8408E-02  9.1169E-03 -3.8611E-03  0.0000E+00 -4.7860E-04
          90  3.9390E+00  1.6975E+00  1.0092E+00  9.0331E-03  3.0546E-01 -1.6915E-02  9.1482E-03 -3.8535E-03  0.0000E+00 -4.3980E-04
          90  3.7936E+00  1.6975E+00  1.0087E+00  8.0071E-03  3.0502E-01 -1.8131E-02  9.1482E-03 -3.8612E-03  0.0000E+00 -4.7140E-04
  Element nb      COORD1      COORD2         S11         S22         S33         S12         E11         E22         E33         E12
          91  3.9401E+00  1.8031E+00  1.0095E+00  4.4377E-03  3.0418E-01 -1.4321E-02  9.1691E-03 -3.8966E-03  0.0000E+00 -3.7234E-04
          91  3.7948E+00  1.8031E+00  1.0089E+00  3.0077E-03  3.0357E-01 -1.5317E-02  9.1691E-03 -3.9073E-03  0.0000E+00 -3.9825E-04
          91  3.9415E+00  1.9474E+00  1.0130E+00  5.9095E-03  3.0566E-01 -1.3925E-02  9.1948E-03 -3.8967E-03  0.0000E+00 -3.6204E-04
          91  3.7964E+00  1.9474E+00  1.0123E+00  4.4776E-03  3.0505E-01 -1.4923E-02  9.1948E-03 -3.9074E-03  0.0000E+00 -3.8799E-04
  Element nb      COORD1      COORD2         S11         S22         S33         S12         E11         E22         E33         E12
          92  3.9426E+00  2.0530E+00  1.0131E+00  2.3476E-03  3.0463E-01 -9.9524E-03  9.2099E-03 -3.9297E-03  0.0000E+00 -2.5876E-04
          92  3.7976E+00  2.0530E+00  1.0123E+00  5.6042E-04  3.0386E-01 -1.0547E-02  9.2099E-03 -3.9429E-03  0.0000E+00 -2.7422E-04
          92  3.9441E+00  2.1973E+00  1.0152E+00  3.2183E-03  3.0551E-01 -9.4496E-03  9.2253E-03 -3.9298E-03  0.0000E+00 -2.4569E-04
          92  3.7993E+00  2.1973E+00  1.0144E+00  1.4287E-03  3.0474E-01 -1.0045E-02  9.2253E-03 -3.9431E-03  0.0000E+00 -2.6117E-04
  Element nb      COORD1      COORD2         S11         S22         S33         S12         E11         E22         E33         E12
          93  3.9451E+00  2.3029E+00  1.0150E+00  1.4950E-03  3.0494E-01 -4.1139E-03  9.2305E-03 -3.9448E-03  0.0000E+00 -1.0696E-04
          93  3.8005E+00  2.3029E+00  1.0140E+00 -6.9830E-04  3.0400E-01 -4.0627E-03  9.2305E-03 -3.9611E-03  0.0000E+00 -1.0563E-04
          93  3.9466E+00  2.4472E+00  1.0148E+00  1.3957E-03  3.0486E-01 -3.4873E-03  9.2292E-03 -3.9450E-03  0.0000E+00 -9.0671E-05
          93  3.8022E+00  2.4472E+00  1.0139E+00 -8.0070E-04  3.0392E-01 -3.4360E-03  9.2292E-03 -3.9613E-03  0.0000E+00 -8.9336E-05
  Element nb      COORD1      COORD2         S11         S22         S33         S12         E11         E22         E33         E12
          94  3.6847E+00  3.0331E-01  9.7902E-01  2.1221E-02  3.0007E-01 -9.4798E-03  8.8263E-03 -3.6251E-03  0.0000E+00 -2.4648E-04
          94  3.5390E+00  3.0336E-01  9.8002E-01  2.3571E-02  3.0108E-01 -1.0230E-02  8.8263E-03 -3.6076E-03  0.0000E+00 -2.6598E-04
          94  3.6813E+00  4.4777E-01  9.8159E-01  2.2282E-02  3.0116E-01 -1.0127E-02  8.8456E-03 -3.6255E-03  0.0000E+00 -2.6330E-04
          94  3.5353E+00  4.4784E-01  9.8260E-01  2.4625E-02  3.0217E-01 -1.0875E-02  8.8456E-03 -3.6080E-03  0.0000E+00 -2.8276E-04
  Element nb      COORD1      COORD2         S11         S22         S33         S12         E11         E22         E33         E12
          95  3.6798E+00  5.5349E-01  9.8216E-01  1.8908E-02  3.0032E-01 -1.5026E-02  8.8639E-03 -3.6583E-03  0.0000E+00 -3.9067E-04
          95  3.5336E+00  5.5356E-01  9.8288E-01  2.0609E-02  3.0105E-01 -1.6227E-02  8.8639E-03 -3.6457E-03  0.0000E+00 -4.2190E-04
          95  3.6790E+00  6.9786E-01  9.8630E-01  2.0677E-02  3.0209E-01 -1.5499E-02  8.8947E-03 -3.6584E-03  0.0000E+00 -4.0297E-04
          95  3.5327E+00  6.9794E-01  9.8703E-01  2.2376E-02  3.0282E-01 -1.6699E-02  8.8947E-03 -3.6458E-03  0.0000E+00 -4.3417E-04
  Element nb      COORD1      COORD2         S11         S22         S33         S12         E11         E22         E33         E12
          96  3.6789E+00  8.0353E-01  9.8709E-01  1.6024E-02  3.0094E-01 -1.9123E-02  8.9201E-03 -3.7038E-03  0.0000E+00 -4.9720E-04
          96  3.5326E+00  8.0361E-01  9.8747E-01  1.6915E-02  3.0132E-01 -2.0628E-02  8.9200E-03 -3.6972E-03  0.0000E+00 -5.3633E-04
          96  3.6795E+00  9.4785E-01  9.9229E-01  1.8255E-02  3.0316E-01 -1.9381E-02  8.9587E-03 -3.7038E-03  0.0000E+00 -5.0389E-04
          96  3.5332E+00  9.4792E-01  9.9267E-01  1.9146E-02  3.0355E-01 -2.0886E-02  8.9587E-03 -3.6972E-03  0.0000E+00 -5.4304E-04
  Element nb      COORD1      COORD2         S11         S22         S33         S12         E11         E22         E33         E12
          97  3.6801E+00  1.0535E+00  9.9323E-01  1.2835E-02  3.0182E-01 -2.1447E-02  8.9884E-03 -3.7568E-03  0.0000E+00 -5.5762E-04
          97  3.5340E+00  1.0536E+00  9.9326E-01  1.2915E-02  3.0185E-01 -2.3105E-02  8.9883E-03 -3.7562E-03  0.0000E+00 -6.0072E-04
          97  3.6814E+00  1.1978E+00  9.9896E-01  1.5292E-02  3.0428E-01 -2.1484E-02  9.0309E-03 -3.7568E-03  0.0000E+00 -5.5859E-04
          97  3.5354E+00  1.1978E+00  9.9900E-01  1.5372E-02  3.0431E-01 -2.3143E-02  9.0309E-03 -3.7562E-03  0.0000E+00 -6.0173E-04
  Element nb      COORD1      COORD2         S11         S22         S33         S12         E11         E22         E33         E12
          98  3.6825E+00  1.3034E+00  9.9997E-01  9.5955E-03  3.0287E-01 -2.1866E-02  9.0623E-03 -3.8125E-03  0.0000E+00 -5.6853E-04
          98  3.5366E+00  1.3035E+00  9.9970E-01  8.9697E-03  3.0260E-01 -2.3541E-02  9.0623E-03 -3.8172E-03  0.0000E+00 -6.1206E-04
          98  3.6841E+00  1.4477E+00  1.0058E+00  1.2074E-02  3.0535E-01 -2.1708E-02  9.1053E-03 -3.8126E-03  0.0000E+00 -5.6442E-04
          98  3.5383E+00  1.4477E+00  1.0055E+00  1.1447E-02  3.0508E-01 -2.3384E-02  9.1053E-03 -3.8172E-03  0.0000E+00 -6.0800E-04
  Element nb      COORD1      COORD2         S11         S22         S33         S12         E11         E22         E33         E12
          99  3.6853E+00  1.5533E+00  1.0068E+00  6.5420E-03  3.0399E-01 -2.0384E-02  9.1359E-03 -3.8668E-03  0.0000E+00 -5.2998E-04
          99  3.5397E+00  1.5533E+00  1.0062E+00  5.3543E-03  3.0348E-01 -2.1952E-02  9.1359E-03 -3.8756E-03  0.0000E+00 -5.7075E-04
          99  3.6871E+00  1.6976E+00  1.0122E+00  8.8605E-03  3.0631E-01 -2.0066E-02  9.1764E-03 -3.8669E-03  0.0000E+00 -5.2172E-04
          99  3.5416E+00  1.6976E+00  1.0117E+00  7.6713E-03  3.0580E-01 -2.1636E-02  9.1763E-03 -3.8757E-03  0.0000E+00 -5.6254E-04
  Element nb      COORD1      COORD2         S11         S22         S33         S12         E11         E22         E33         E12
         100  3.6884E+00  1.8032E+00  1.0131E+00  3.9246E-03  3.0510E-01 -1.7052E-02  9.2038E-03 -3.9153E-03  0.0000E+00 -4.4334E-04
         100  3.5431E+00  1.8032E+00  1.0124E+00  2.2827E-03  3.0440E-01 -1.8386E-02  9.2038E-03 -3.9275E-03  0.0000E+00 -4.7805E-04
         100  3.6902E+00  1.9474E+00  1.0177E+00  5.8948E-03  3.0709E-01 -1.6602E-02  9.2383E-03 -3.9155E-03  0.0000E+00 -4.3165E-04
         100  3.5451E+00  1.9475E+00  1.0170E+00  4.2508E-03  3.0638E-01 -1.7939E-02  9.2383E-03 -3.9277E-03  0.0000E+00 -4.6641E-04
  Element nb      COORD1      COORD2         S11         S22         S33         S12         E11         E22         E33         E12
         101  3.6915E+00  2.0530E+00  1.0185E+00  2.0618E-03  3.0616E-01 -1.1886E-02  9.2599E-03 -3.9532E-03  0.0000E+00 -3.0904E-04
         101  3.5465E+00  2.0531E+00  1.0176E+00 -2.0962E-05  3.0526E-01 -1.2832E-02  9.2599E-03 -3.9687E-03  0.0000E+00 -3.3363E-04
         101  3.6933E+00  2.1973E+00  1.0217E+00  3.4490E-03  3.0756E-01 -1.1305E-02  9.2844E-03 -3.9534E-03  0.0000E+00 -2.9393E-04
         101  3.5486E+00  2.1973E+00  1.0209E+00  1.3635E-03  3.0666E-01 -1.2252E-02  9.2844E-03 -3.9689E-03  0.0000E+00 -3.1855E-04
  Element nb      COORD1      COORD2         S11         S22         S33         S12         E11         E22         E33         E12
         102  3.6947E+00  2.3029E+00  1.0222E+00  1.3851E-03  3.0708E-01 -4.7955E-03  9.2968E-03 -3.9740E-03  0.0000E+00 -1.2468E-04
         102  3.5501E+00  2.3029E+00  1.0211E+00 -1.2449E-03  3.0595E-01 -5.1480E-03  9.2968E-03 -3.9936E-03  0.0000E+00 -1.3385E-04
         102  3.6965E+00  2.4472E+00  1.0234E+00  1.8799E-03  3.0759E-01 -4.0493E-03  9.3059E-03 -3.9743E-03  0.0000E+00 -1.0528E-04
         102  3.5521E+00  2.4472E+00  1.0223E+00 -7.5379E-04  3.0647E-01 -4.4023E-03  9.3059E-03 -3.9939E-03  0.0000E+00 -1.1446E-04
  Element nb      COORD1      COORD2         S11         S22         S33         S12         E11         E22         E33         E12
         103  3.4324E+00  3.0340E-01  9.7161E-01  2.1479E-02  2.9793E-01 -1.1293E-02  8.7579E-03 -3.5938E-03  0.0000E+00 -2.9362E-04
         103  3.2867E+00  3.0345E-01  9.7281E-01  2.4280E-02  2.9913E-01 -1.2309E-02  8.7579E-03 -3.5730E-03  0.0000E+00 -3.2004E-04
         103  3.4284E+00  4.4788E-01  9.7510E-01  2.2912E-02  2.9940E-01 -1.2058E-02  8.7841E-03 -3.5944E-03  0.0000E+00 -3.1350E-04
         103  3.2824E+00  4.4795E-01  9.7630E-01  2.5706E-02  3.0060E-01 -1.3071E-02  8.7841E-03 -3.5736E-03  0.0000E+00 -3.3985E-04
  Element nb      COORD1      COORD2         S11         S22         S33         S12         E11         E22         E33         E12
         104  3.4266E+00  5.5362E-01  9.7601E-01  1.8725E-02  2.9842E-01 -1.7811E-02  8.8086E-03 -3.6360E-03  0.0000E+00 -4.6308E-04
         104  3.2804E+00  5.5369E-01  9.7682E-01  2.0616E-02  2.9923E-01 -1.9417E-02  8.8086E-03 -3.6220E-03  0.0000E+00 -5.0485E-04
         104  3.4256E+00  6.9799E-01  9.8155E-01  2.1090E-02  3.0079E-01 -1.8333E-02  8.8499E-03 -3.6361E-03  0.0000E+00 -4.7667E-04
         104  3.2793E+00  6.9807E-01  9.8236E-01  2.2980E-02  3.0160E-01 -1.9938E-02  8.8498E-03 -3.6221E-03  0.0000E+00 -5.1840E-04
  Element nb      COORD1      COORD2         S11         S22         S33         S12         E11         E22         E33         E12
         105  3.4255E+00  8.0366E-01  9.8281E-01  1.5433E-02  2.9947E-01 -2.2501E-02  8.8834E-03 -3.6925E-03  0.0000E+00 -5.8504E-04
         105  3.2792E+00  8.0374E-01  9.8316E-01  1.6240E-02  2.9982E-01 -2.4474E-02  8.8834E-03 -3.6865E-03  0.0000E+00 -6.3632E-04
         105  3.4261E+00  9.4797E-01  9.8963E-01  1.8356E-02  3.0239E-01 -2.2738E-02  8.9340E-03 -3.6925E-03  0.0000E+00 -5.9120E-04
         105  3.2799E+00  9.4805E-01  9.8997E-01  1.9164E-02  3.0274E-01 -2.4712E-02  8.9340E-03 -3.6865E-03  0.0000E+00 -6.4250E-04
  Element nb      COORD1      COORD2         S11         S22         S33         S12         E11         E22         E33         E12
         106  3.4269E+00  1.0536E+00  9.9111E-01  1.1971E-02  3.0093E-01 -2.5027E-02  8.9724E-03 -3.7564E-03  0.0000E+00 -6.5071E-04
         106  3.2807E+00  1.0537E+00  9.9102E-01  1.1762E-02  3.0084E-01 -2.7151E-02  8.9724E-03 -3.7579E-03  0.0000E+00 -7.0592E-04
         106  3.4285E+00  1.1979E+00  9.9845E-01  1.5115E-02  3.0407E-01 -2.4991E-02  9.0270E-03 -3.7564E-03  0.0000E+00 -6.4977E-04
         106  3.2824E+00  1.1979E+00  9.9836E-01  1.4906E-02  3.0398E-01 -2.7116E-02  9.0270E-03 -3.7580E-03  0.0000E+00 -7.0502E-04
  Element nb      COORD1      COORD2         S11         S22         S33         S12         E11         E22         E33         E12
         107  3.4297E+00  1.3035E+00  1.0001E+00  8.6479E-03  3.0261E-01 -2.5320E-02  9.0667E-03 -3.8215E-03  0.0000E+00 -6.5832E-04
         107  3.2838E+00  1.3036E+00  9.9962E-01  7.6384E-03  3.0218E-01 -2.7423E-02  9.0667E-03 -3.8290E-03  0.0000E+00 -7.1300E-04
         107  3.4316E+00  1.4478E+00  1.0073E+00  1.1756E-02  3.0573E-01 -2.5062E-02  9.1208E-03 -3.8216E-03  0.0000E+00 -6.5162E-04
         107  3.2859E+00  1.4478E+00  1.0069E+00  1.0746E-02  3.0529E-01 -2.7168E-02  9.1208E-03 -3.8291E-03  0.0000E+00 -7.0637E-04
  Element nb      COORD1      COORD2         S11         S22         S33         S12         E11         E22         E33         E12
         108  3.4331E+00  1.5534E+00  1.0089E+00  5.6960E-03  3.0439E-01 -2.3462E-02  9.1591E-03 -3.8830E-03  0.0000E+00 -6.1002E-04
         108  3.2874E+00  1.5534E+00  1.0083E+00  4.1258E-03  3.0372E-01 -2.5422E-02  9.1591E-03 -3.8947E-03  0.0000E+00 -6.6097E-04
         108  3.4352E+00  1.6976E+00  1.0157E+00  8.5886E-03  3.0730E-01 -2.3046E-02  9.2097E-03 -3.8832E-03  0.0000E+00 -5.9919E-04
         108  3.2897E+00  1.6977E+00  1.0151E+00  7.0165E-03  3.0662E-01 -2.5008E-02  9.2097E-03 -3.8949E-03  0.0000E+00 -6.5020E-04
  Element nb      COORD1      COORD2         S11         S22         S33         S12         E11         E22         E33         E12
         109  3.4367E+00  1.8032E+00  1.0173E+00  3.3038E-03  3.0618E-01 -1.9551E-02  9.2445E-03 -3.9374E-03  0.0000E+00 -5.0832E-04
         109  3.2914E+00  1.8033E+00  1.0164E+00  1.3242E-03  3.0533E-01 -2.1270E-02  9.2444E-03 -3.9521E-03  0.0000E+00 -5.5301E-04
         109  3.4388E+00  1.9475E+00  1.0233E+00  5.8373E-03  3.0873E-01 -1.9014E-02  9.2889E-03 -3.9376E-03  0.0000E+00 -4.9437E-04
         109  3.2937E+00  1.9475E+00  1.0224E+00  3.8551E-03  3.0788E-01 -2.0735E-02  9.2889E-03 -3.9523E-03  0.0000E+00 -5.3912E-04
  Element nb      COORD1      COORD2         S11         S22         S33         S12         E11         E22         E33         E12
         110  3.4404E+00  2.0531E+00  1.0247E+00  1.6879E-03  3.0791E-01 -1.3571E-02  9.3181E-03 -3.9810E-03  0.0000E+00 -3.5285E-04
         110  3.2955E+00  2.0531E+00  1.0237E+00 -7.1568E-04  3.0688E-01 -1.4940E-02  9.3181E-03 -3.9988E-03  0.0000E+00 -3.8845E-04
         110  3.4426E+00  2.1973E+00  1.0295E+00  3.6979E-03  3.0995E-01 -1.2908E-02  9.3536E-03 -3.9812E-03  0.0000E+00 -3.3560E-04
         110  3.2978E+00  2.1974E+00  1.0284E+00  1.2911E-03  3.0891E-01 -1.4278E-02  9.3536E-03 -3.9991E-03  0.0000E+00 -3.7124E-04
  Element nb      COORD1      COORD2         S11         S22         S33         S12         E11         E22         E33         E12
         111  3.4442E+00  2.3029E+00  1.0307E+00  1.1711E-03  3.0956E-01 -5.3294E-03  9.3748E-03 -4.0091E-03  0.0000E+00 -1.3856E-04
         111  3.2996E+00  2.3030E+00  1.0294E+00 -1.8472E-03  3.0827E-01 -6.1871E-03  9.3748E-03 -4.0315E-03  0.0000E+00 -1.6086E-04
         111  3.4464E+00  2.4472E+00  1.0337E+00  2.4106E-03  3.1083E-01 -4.4810E-03  9.3970E-03 -4.0094E-03  0.0000E+00 -1.1651E-04
         111  3.3020E+00  2.4472E+00  1.0324E+00 -6.1183E-04  3.0953E-01 -5.3399E-03  9.3970E-03 -4.0318E-03  0.0000E+00 -1.3884E-04
  Element nb      COORD1      COORD2         S11         S22         S33         S12         E11         E22         E33         E12
         112  3.1801E+00  3.0348E-01  9.6278E-01  2.1720E-02  2.9535E-01 -1.3583E-02  8.6766E-03 -3.5572E-03  0.0000E+00 -3.5316E-04
         112  3.0344E+00  3.0353E-01  9.6411E-01  2.4825E-02  2.9668E-01 -1.4965E-02  8.6766E-03 -3.5341E-03  0.0000E+00 -3.8909E-04
         112  3.1755E+00  4.4800E-01  9.6753E-01  2.3676E-02  2.9736E-01 -1.4418E-02  8.7122E-03 -3.5579E-03  0.0000E+00 -3.7486E-04
         112  3.0295E+00  4.4806E-01  9.6886E-01  2.6772E-02  2.9869E-01 -1.5796E-02  8.7122E-03 -3.5349E-03  0.0000E+00 -4.1071E-04
  Element nb      COORD1      COORD2         S11         S22         S33         S12         E11         E22         E33         E12
         113  3.1734E+00  5.5374E-01  9.6886E-01  1.8302E-02  2.9615E-01 -2.1218E-02  8.7453E-03 -3.6120E-03  0.0000E+00 -5.5167E-04
         113  3.0272E+00  5.5381E-01  9.6963E-01  2.0102E-02  2.9692E-01 -2.3363E-02  8.7452E-03 -3.5986E-03  0.0000E+00 -6.0745E-04
         113  3.1722E+00  6.9812E-01  9.7627E-01  2.1463E-02  2.9932E-01 -2.1709E-02  8.8003E-03 -3.6121E-03  0.0000E+00 -5.6443E-04
         113  3.0259E+00  6.9820E-01  9.7704E-01  2.3262E-02  3.0009E-01 -2.3852E-02  8.8003E-03 -3.5988E-03  0.0000E+00 -6.2016E-04
  Element nb      COORD1      COORD2         S11         S22         S33         S12         E11         E22         E33         E12
         114  3.1721E+00  8.0379E-01  9.7810E-01  1.4417E-02  2.9775E-01 -2.6451E-02  8.8445E-03 -3.6834E-03  0.0000E+00 -6.8771E-04
         114  3.0257E+00  8.0387E-01  9.7823E-01  1.4743E-02  2.9789E-01 -2.9014E-02  8.8444E-03 -3.6809E-03  0.0000E+00 -7.5436E-04
         114  3.1728E+00  9.4810E-01  9.8695E-01  1.8212E-02  3.0155E-01 -2.6556E-02  8.9102E-03 -3.6834E-03  0.0000E+00 -6.9047E-04
         114  3.0266E+00  9.4817E-01  9.8709E-01  1.8538E-02  3.0169E-01 -2.9121E-02  8.9102E-03 -3.6809E-03  0.0000E+00 -7.5714E-04
  Element nb      COORD1      COORD2         S11         S22         S33         S12         E11         E22         E33         E12
         115  3.1737E+00  1.0537E+00  9.8908E-01  1.0590E-02  2.9990E-01 -2.8963E-02  8.9593E-03 -3.7611E-03  0.0000E+00 -7.5304E-04
         115  3.0275E+00  1.0538E+00  9.8867E-01  9.6448E-03  2.9950E-01 -3.1635E-02  8.9593E-03 -3.7681E-03  0.0000E+00 -8.2251E-04
         115  3.1755E+00  1.1980E+00  9.9831E-01  1.4537E-02  3.0386E-01 -2.8729E-02  9.0280E-03 -3.7611E-03  0.0000E+00 -7.4695E-04
         115  3.0294E+00  1.1981E+00  9.9791E-01  1.3592E-02  3.0345E-01 -3.1403E-02  9.0279E-03 -3.7681E-03  0.0000E+00 -8.1649E-04
  Element nb      COORD1      COORD2         S11         S22         S33         S12         E11         E22         E33         E12
         116  3.1769E+00  1.3036E+00  1.0006E+00  7.2007E-03  3.0234E-01 -2.8836E-02  9.0773E-03 -3.8368E-03  0.0000E+00 -7.4973E-04
         116  3.0310E+00  1.3037E+00  9.9981E-01  5.3905E-03  3.0156E-01 -3.1405E-02  9.0772E-03 -3.8502E-03  0.0000E+00 -8.1653E-04
         116  3.1791E+00  1.4479E+00  1.0095E+00  1.0986E-02  3.0614E-01 -2.8363E-02  9.1434E-03 -3.8370E-03  0.0000E+00 -7.3745E-04
         116  3.0334E+00  1.4479E+00  1.0087E+00  9.1742E-03  3.0536E-01 -3.0936E-02  9.1433E-03 -3.8504E-03  0.0000E+00 -8.0433E-04
  Element nb      COORD1      COORD2         S11         S22         S33         S12         E11         E22         E33         E12
         117  3.1808E+00  1.5535E+00  1.0118E+00  4.4529E-03  3.0487E-01 -2.6337E-02  9.1898E-03 -3.9054E-03  0.0000E+00 -6.8475E-04
         117  3.0352E+00  1.5535E+00  1.0108E+00  2.1844E-03  3.0390E-01 -2.8694E-02  9.1898E-03 -3.9223E-03  0.0000E+00 -7.4605E-04
         117  3.1832E+00  1.6977E+00  1.0199E+00  7.9223E-03  3.0836E-01 -2.5733E-02  9.2506E-03 -3.9057E-03  0.0000E+00 -6.6906E-04
         117  3.0378E+00  1.6977E+00  1.0190E+00  5.6509E-03  3.0739E-01 -2.8094E-02  9.2506E-03 -3.9226E-03  0.0000E+00 -7.3044E-04
  Element nb      COORD1      COORD2         S11         S22         S33         S12         E11         E22         E33         E12
         118  3.1850E+00  1.8033E+00  1.0222E+00  2.4198E-03  3.0739E-01 -2.1693E-02  9.2928E-03 -3.9647E-03  0.0000E+00 -5.6402E-04
         118  3.0397E+00  1.8033E+00  1.0212E+00 -7.0439E-05  3.0633E-01 -2.3800E-02  9.2928E-03 -3.9831E-03  0.0000E+00 -6.1880E-04
         118  3.1875E+00  1.9475E+00  1.0295E+00  5.5182E-03  3.1052E-01 -2.1022E-02  9.3472E-03 -3.9650E-03  0.0000E+00 -5.4658E-04
         118  3.0424E+00  1.9476E+00  1.0285E+00  3.0248E-03  3.0945E-01 -2.3132E-02  9.3472E-03 -3.9835E-03  0.0000E+00 -6.0143E-04
  Element nb      COORD1      COORD2         S11         S22         S33         S12         E11         E22         E33         E12
         119  3.1893E+00  2.0531E+00  1.0318E+00  1.1544E-03  3.0987E-01 -1.4911E-02  9.3845E-03 -4.0134E-03  0.0000E+00 -3.8769E-04
         119  3.0444E+00  2.0532E+00  1.0306E+00 -1.5956E-03  3.0870E-01 -1.6737E-02  9.3845E-03 -4.0338E-03  0.0000E+00 -4.3516E-04
         119  3.1919E+00  2.1974E+00  1.0381E+00  3.8352E-03  3.1258E-01 -1.4160E-02  9.4318E-03 -4.0137E-03  0.0000E+00 -3.6816E-04
         119  3.0471E+00  2.1974E+00  1.0369E+00  1.0815E-03  3.1140E-01 -1.5989E-02  9.4318E-03 -4.0342E-03  0.0000E+00 -4.1570E-04
  Element nb      COORD1      COORD2         S11         S22         S33         S12         E11         E22         E33         E12
         120  3.1937E+00  2.3030E+00  1.0402E+00  8.3061E-04  3.1232E-01 -5.6804E-03  9.4629E-03 -4.0494E-03  0.0000E+00 -1.4769E-04
         120  3.0491E+00  2.3030E+00  1.0388E+00 -2.5039E-03  3.1089E-01 -7.1306E-03  9.4629E-03 -4.0741E-03  0.0000E+00 -1.8540E-04
         120  3.1962E+00  2.4472E+00  1.0453E+00  2.9448E-03  3.1447E-01 -4.7543E-03  9.5006E-03 -4.0498E-03  0.0000E+00 -1.2361E-04
         120  3.0518E+00  2.4472E+00  1.0439E+00 -3.9422E-04  3.1304E-01 -6.2065E-03  9.5006E-03 -4.0746E-03  0.0000E+00 -1.6137E-04
  Element nb      COORD1      COORD2         S11         S22         S33         S12         E11         E22         E33         E12
         121  2.9278E+00  3.0357E-01  9.5213E-01  2.1570E-02  2.9211E-01 -1.6602E-02  8.5803E-03 -3.5170E-03  0.0000E+00 -4.3166E-04
         121  2.7822E+00  3.0362E-01  9.5354E-01  2.4862E-02  2.9352E-01 -1.8511E-02  8.5802E-03 -3.4926E-03  0.0000E+00 -4.8128E-04
         121  2.9226E+00  4.4811E-01  9.5869E-01  2.4288E-02  2.9489E-01 -1.7466E-02  8.6294E-03 -3.5179E-03  0.0000E+00 -4.5411E-04
         121  2.7766E+00  4.4817E-01  9.6010E-01  2.7571E-02  2.9630E-01 -1.9369E-02  8.6294E-03 -3.4935E-03  0.0000E+00 -5.0361E-04
  Element nb      COORD1      COORD2         S11         S22         S33         S12         E11         E22         E33         E12
         122  2.9202E+00  5.5386E-01  9.6059E-01  1.7164E-02  2.9332E-01 -2.5562E-02  8.6744E-03 -3.5901E-03  0.0000E+00 -6.6462E-04
         122  2.7740E+00  5.5393E-01  9.6117E-01  1.8528E-02  2.9391E-01 -2.8452E-02  8.6744E-03 -3.5800E-03  0.0000E+00 -7.3976E-04
         122  2.9188E+00  6.9825E-01  9.7056E-01  2.1429E-02  2.9760E-01 -2.5920E-02  8.7486E-03 -3.5902E-03  0.0000E+00 -6.7393E-04
         122  2.7725E+00  6.9833E-01  9.7114E-01  2.2792E-02  2.9818E-01 -2.8808E-02  8.7485E-03 -3.5801E-03  0.0000E+00 -7.4901E-04
  Element nb      COORD1      COORD2         S11         S22         S33         S12         E11         E22         E33         E12
         123  2.9186E+00  8.0392E-01  9.7312E-01  1.2444E-02  2.9567E-01 -3.1220E-02  8.8069E-03 -3.6819E-03  0.0000E+00 -8.1173E-04
         123  2.7723E+00  8.0400E-01  9.7282E-01  1.1751E-02  2.9537E-01 -3.4550E-02  8.8068E-03 -3.6871E-03  0.0000E+00 -8.9829E-04
         123  2.9195E+00  9.4823E-01  9.8462E-01  1.7367E-02  3.0059E-01 -3.1045E-02  8.8923E-03 -3.6820E-03  0.0000E+00 -8.0717E-04
         123  2.7732E+00  9.4830E-01  9.8431E-01  1.6674E-02  3.0030E-01 -3.4375E-02  8.8922E-03 -3.6871E-03  0.0000E+00 -8.9376E-04
  Element nb      COORD1      COORD2         S11         S22         S33         S12         E11         E22         E33         E12
         124  2.9205E+00  1.0538E+00  9.8753E-01  8.1699E-03  2.9871E-01 -3.3352E-02  8.9547E-03 -3.7770E-03  0.0000E+00 -8.6715E-04
         124  2.7743E+00  1.0539E+00  9.8654E-01  5.8745E-03  2.9772E-01 -3.6671E-02  8.9546E-03 -3.7941E-03  0.0000E+00 -9.5345E-04
         124  2.9225E+00  1.1981E+00  9.9899E-01  1.3056E-02  3.0361E-01 -3.2750E-02  9.0399E-03 -3.7773E-03  0.0000E+00 -8.5149E-04
         124  2.7765E+00  1.1982E+00  9.9800E-01  1.0759E-02  3.0263E-01 -3.6072E-02  9.0399E-03 -3.7943E-03  0.0000E+00 -9.3787E-04
  Element nb      COORD1      COORD2         S11         S22         S33         S12         E11         E22         E33         E12
         125  2.9241E+00  1.3037E+00  1.0020E+00  4.8034E-03  3.0205E-01 -3.2342E-02  9.0998E-03 -3.8642E-03  0.0000E+00 -8.4088E-04
         125  2.7782E+00  1.3038E+00  1.0007E+00  1.6329E-03  3.0069E-01 -3.5392E-02  9.0998E-03 -3.8878E-03  0.0000E+00 -9.2019E-04
         125  2.9267E+00  1.4480E+00  1.0126E+00  9.2755E-03  3.0656E-01 -3.1498E-02  9.1783E-03 -3.8646E-03  0.0000E+00 -8.1895E-04
         125  2.7809E+00  1.4480E+00  1.0112E+00  6.1014E-03  3.0519E-01 -3.4552E-02  9.1782E-03 -3.8882E-03  0.0000E+00 -8.9835E-04
  Element nb      COORD1      COORD2         S11         S22         S33         S12         E11         E22         E33         E12
         126  2.9286E+00  1.5535E+00  1.0156E+00  2.4746E-03  3.0543E-01 -2.8806E-02  9.2326E-03 -3.9384E-03  0.0000E+00 -7.4896E-04
         126  2.7829E+00  1.5536E+00  1.0142E+00 -8.9983E-04  3.0398E-01 -3.1519E-02  9.2326E-03 -3.9635E-03  0.0000E+00 -8.1949E-04
         126  2.9313E+00  1.6978E+00  1.0250E+00  6.4456E-03  3.0944E-01 -2.7901E-02  9.3025E-03 -3.9389E-03  0.0000E+00 -7.2544E-04
         126  2.7859E+00  1.6978E+00  1.0236E+00  3.0670E-03  3.0799E-01 -3.0618E-02  9.3025E-03 -3.9640E-03  0.0000E+00 -7.9606E-04
  Element nb      COORD1      COORD2         S11         S22         S33         S12         E11         E22         E33         E12
         127  2.9333E+00  1.8034E+00  1.0281E+00  1.0625E-03  3.0874E-01 -2.3229E-02  9.3512E-03 -3.9998E-03  0.0000E+00 -6.0396E-04
         127  2.7880E+00  1.8034E+00  1.0267E+00 -2.1449E-03  3.0736E-01 -2.5667E-02  9.3512E-03 -4.0236E-03  0.0000E+00 -6.6733E-04
         127  2.9362E+00  1.9476E+00  1.0365E+00  4.6333E-03  3.1234E-01 -2.2366E-02  9.4142E-03 -4.0002E-03  0.0000E+00 -5.8153E-04
         127  2.7911E+00  1.9476E+00  1.0351E+00  1.4216E-03  3.1097E-01 -2.4807E-02  9.4142E-03 -4.0241E-03  0.0000E+00 -6.4498E-04
  Element nb      COORD1      COORD2         S11         S22         S33         S12         E11         E22         E33         E12
         128  2.9383E+00  2.0532E+00  1.0396E+00  3.6606E-04  3.1198E-01 -1.5696E-02  9.4587E-03 -4.0510E-03  0.0000E+00 -4.0810E-04
         128  2.7933E+00  2.0532E+00  1.0382E+00 -2.7387E-03  3.1065E-01 -1.7957E-02  9.4587E-03 -4.0741E-03  0.0000E+00 -4.6689E-04
         128  2.9411E+00  2.1974E+00  1.0474E+00  3.6831E-03  3.1533E-01 -1.4857E-02  9.5173E-03 -4.0515E-03  0.0000E+00 -3.8629E-04
         128  2.7964E+00  2.1974E+00  1.0461E+00  5.7418E-04  3.1400E-01 -1.7121E-02  9.5173E-03 -4.0746E-03  0.0000E+00 -4.4516E-04
  Element nb      COORD1      COORD2         S11         S22         S33         S12         E11         E22         E33         E12
         129  2.9432E+00  2.3030E+00  1.0506E+00  3.2657E-04  3.1526E-01 -5.7554E-03  9.5588E-03 -4.0942E-03  0.0000E+00 -1.4964E-04
         129  2.7986E+00  2.3030E+00  1.0490E+00 -3.1992E-03  3.1375E-01 -7.8642E-03  9.5588E-03 -4.1204E-03  0.0000E+00 -2.0447E-04
         129  2.9461E+00  2.4472E+00  1.0579E+00  3.4152E-03  3.1839E-01 -4.7915E-03  9.6135E-03 -4.0947E-03  0.0000E+00 -1.2458E-04
         129  2.8017E+00  2.4472E+00  1.0564E+00 -1.1534E-04  3.1688E-01 -6.9032E-03  9.6135E-03 -4.1209E-03  0.0000E+00 -1.7948E-04
  Element nb      COORD1      COORD2         S11         S22         S33         S12         E11         E22         E33         E12
         130  2.6755E+00  3.0366E-01  9.3903E-01  2.0600E-02  2.8789E-01 -2.0753E-02  8.4648E-03 -3.4748E-03  0.0000E+00 -5.3957E-04
         130  2.5299E+00  3.0371E-01  9.4048E-01  2.3999E-02  2.8934E-01 -2.3453E-02  8.4648E-03 -3.4495E-03  0.0000E+00 -6.0979E-04
         130  2.6697E+00  4.4822E-01  9.4833E-01  2.4476E-02  2.9184E-01 -2.1607E-02  8.5343E-03 -3.4758E-03  0.0000E+00 -5.6179E-04
         130  2.5237E+00  4.4828E-01  9.4978E-01  2.7867E-02  2.9329E-01 -2.4301E-02  8.5343E-03 -3.4506E-03  0.0000E+00 -6.3183E-04
  Element nb      COORD1      COORD2         S11         S22         S33         S12         E11         E22         E33         E12
         131  2.6670E+00  5.5398E-01  9.5101E-01  1.4714E-02  2.8972E-01 -3.1320E-02  8.5968E-03 -3.5751E-03  0.0000E+00 -8.1433E-04
         131  2.5208E+00  5.5405E-01  9.5121E-01  1.5180E-02  2.8992E-01 -3.5280E-02  8.5968E-03 -3.5716E-03  0.0000E+00 -9.1727E-04
         131  2.6655E+00  6.9838E-01  9.6469E-01  2.0571E-02  2.9558E-01 -3.1411E-02  8.6984E-03 -3.5751E-03  0.0000E+00 -8.1667E-04
         131  2.5192E+00  6.9845E-01  9.6488E-01  2.1037E-02  2.9578E-01 -3.5367E-02  8.6984E-03 -3.5716E-03  0.0000E+00 -9.1954E-04
  Element nb      COORD1      COORD2         S11         S22         S33         S12         E11         E22         E33         E12
         132  2.6652E+00  8.0405E-01  9.6822E-01  8.8336E-03  2.9311E-01 -3.7154E-02  8.7763E-03 -3.6957E-03  0.0000E+00 -9.6601E-04
         132  2.5189E+00  8.0413E-01  9.6715E-01  6.3702E-03  2.9206E-01 -4.1502E-02  8.7763E-03 -3.7139E-03  0.0000E+00 -1.0791E-03
         132  2.6662E+00  9.4835E-01  9.8322E-01  1.5252E-02  2.9954E-01 -3.6489E-02  8.8878E-03 -3.6958E-03  0.0000E+00 -9.4871E-04
         132  2.5199E+00  9.4843E-01  9.8216E-01  1.2787E-02  2.9848E-01 -4.0838E-02  8.8878E-03 -3.7141E-03  0.0000E+00 -1.0618E-03
  Element nb      COORD1      COORD2         S11         S22         S33         S12         E11         E22         E33         E12
         133  2.6673E+00  1.0540E+00  9.8711E-01  4.0498E-03  2.9735E-01 -3.8282E-02  8.9669E-03 -3.8129E-03  0.0000E+00 -9.9532E-04
         133  2.5211E+00  1.0540E+00  9.8519E-01 -4.2434E-04  2.9543E-01 -4.2359E-02  8.9669E-03 -3.8461E-03  0.0000E+00 -1.1013E-03
         133  2.6695E+00  1.1982E+00  1.0012E+00  1.0022E-02  3.0336E-01 -3.7082E-02  9.0716E-03 -3.8134E-03  0.0000E+00 -9.6413E-04
         133  2.5235E+00  1.1983E+00  9.9925E-01  5.5438E-03  3.0144E-01 -4.1163E-02  9.0716E-03 -3.8466E-03  0.0000E+00 -1.0702E-03
  Element nb      COORD1      COORD2         S11         S22         S33         S12         E11         E22         E33         E12
         134  2.6714E+00  1.3038E+00  1.0051E+00  9.0133E-04  3.0180E-01 -3.5665E-02  9.1429E-03 -3.9117E-03  0.0000E+00 -9.2729E-04
         134  2.5254E+00  1.3039E+00  1.0029E+00 -4.3376E-03  2.9955E-01 -3.9168E-02  9.1429E-03 -3.9506E-03  0.0000E+00 -1.0184E-03
         134  2.6742E+00  1.4480E+00  1.0172E+00  5.9990E-03  3.0696E-01 -3.4252E-02  9.2330E-03 -3.9124E-03  0.0000E+00 -8.9055E-04
         134  2.5284E+00  1.4481E+00  1.0149E+00  7.5418E-04  3.0471E-01 -3.7759E-02  9.2330E-03 -3.9514E-03  0.0000E+00 -9.8174E-04
  Element nb      COORD1      COORD2         S11         S22         S33         S12         E11         E22         E33         E12
         135  2.6763E+00  1.5536E+00  1.0210E+00 -6.3979E-04  3.0612E-01 -3.0520E-02  9.2938E-03 -3.9878E-03  0.0000E+00 -7.9353E-04
         135  2.5307E+00  1.5537E+00  1.0189E+00 -5.5947E-03  3.0399E-01 -3.3469E-02  9.2938E-03 -4.0246E-03  0.0000E+00 -8.7019E-04
         135  2.6794E+00  1.6978E+00  1.0312E+00  3.6401E-03  3.1046E-01 -2.9179E-02  9.3698E-03 -3.9886E-03  0.0000E+00 -7.5866E-04
         135  2.5339E+00  1.6979E+00  1.0291E+00 -1.3210E-03  3.0833E-01 -3.2131E-02  9.3698E-03 -4.0254E-03  0.0000E+00 -8.3542E-04
  Element nb      COORD1      COORD2         S11         S22         S33         S12         E11         E22         E33         E12
         136  2.6817E+00  1.8034E+00  1.0350E+00 -1.0067E-03  3.1020E-01 -2.3750E-02  9.4225E-03 -4.0457E-03  0.0000E+00 -6.1751E-04
         136  2.5364E+00  1.8035E+00  1.0332E+00 -5.1397E-03  3.0843E-01 -2.6372E-02  9.4225E-03 -4.0764E-03  0.0000E+00 -6.8567E-04
         136  2.6848E+00  1.9476E+00  1.0441E+00  2.8104E-03  3.1407E-01 -2.2634E-02  9.4902E-03 -4.0464E-03  0.0000E+00 -5.8849E-04
         136  2.5397E+00  1.9477E+00  1.0423E+00 -1.3281E-03  3.1229E-01 -2.5259E-02  9.4902E-03 -4.0771E-03  0.0000E+00 -6.5674E-04
  Element nb      COORD1      COORD2         S11         S22         S33         S12         E11         E22         E33         E12
         137  2.6872E+00  2.0532E+00  1.0480E+00 -7.8075E-04  3.1416E-01 -1.5583E-02  9.5396E-03 -4.0942E-03  0.0000E+00 -4.0516E-04
         137  2.5422E+00  2.0532E+00  1.0465E+00 -4.2034E-03  3.1269E-01 -1.8178E-02  9.5396E-03 -4.1196E-03  0.0000E+00 -4.7262E-04
         137  2.6904E+00  2.1974E+00  1.0570E+00  3.0196E-03  3.1800E-01 -1.4667E-02  9.6068E-03 -4.0948E-03  0.0000E+00 -3.8134E-04
         137  2.5456E+00  2.1974E+00  1.0555E+00 -4.0757E-04  3.1653E-01 -1.7265E-02  9.6068E-03 -4.1202E-03  0.0000E+00 -4.4889E-04
  Element nb      COORD1      COORD2         S11         S22         S33         S12         E11         E22         E33         E12
         138  2.6928E+00  2.3030E+00  1.0611E+00 -3.8299E-04  3.1823E-01 -5.4007E-03  9.6579E-03 -4.1420E-03  0.0000E+00 -1.4042E-04
         138  2.5481E+00  2.3030E+00  1.0596E+00 -3.8863E-03  3.1673E-01 -8.1905E-03  9.6579E-03 -4.1680E-03  0.0000E+00 -2.1295E-04
         138  2.6960E+00  2.4472E+00  1.0709E+00  3.7173E-03  3.2237E-01 -4.4637E-03  9.7304E-03 -4.1425E-03  0.0000E+00 -1.1606E-04
         138  2.5516E+00  2.4472E+00  1.0694E+00  2.0921E-04  3.2087E-01 -7.2573E-03  9.7304E-03 -4.1686E-03  0.0000E+00 -1.8869E-04
  Element nb      COORD1      COORD2         S11         S22         S33         S12         E11         E22         E33         E12
         139  2.4232E+00  3.0375E-01  9.2251E-01  1.8275E-02  2.8224E-01 -2.6692E-02  8.3236E-03 -3.4315E-03  0.0000E+00 -6.9398E-04
         139  2.2776E+00  3.0380E-01  9.2399E-01  2.1728E-02  2.8371E-01 -3.0636E-02  8.3235E-03 -3.4058E-03  0.0000E+00 -7.9652E-04
         139  2.4168E+00  4.4833E-01  9.3612E-01  2.3982E-02  2.8803E-01 -2.7495E-02  8.4251E-03 -3.4326E-03  0.0000E+00 -7.1488E-04
         139  2.2708E+00  4.4839E-01  9.3759E-01  2.7426E-02  2.8950E-01 -3.1430E-02  8.4251E-03 -3.4070E-03  0.0000E+00 -8.1717E-04
  Element nb      COORD1      COORD2         S11         S22         S33         S12         E11         E22         E33         E12
         140  2.4138E+00  5.5411E-01  9.3998E-01  1.0164E-02  2.8504E-01 -3.9224E-02  8.5142E-03 -3.5734E-03  0.0000E+00 -1.0198E-03
         140  2.2676E+00  5.5418E-01  9.3950E-01  9.0517E-03  2.8456E-01 -4.4770E-02  8.5141E-03 -3.5817E-03  0.0000E+00 -1.1640E-03
         140  2.4121E+00  6.9851E-01  9.5915E-01  1.8390E-02  2.9326E-01 -3.8845E-02  8.6565E-03 -3.5733E-03  0.0000E+00 -1.0100E-03
         140  2.2658E+00  6.9858E-01  9.5866E-01  1.7278E-02  2.9278E-01 -4.4388E-02  8.6565E-03 -3.5816E-03  0.0000E+00 -1.1541E-03
  Element nb      COORD1      COORD2         S11         S22         S33         S12         E11         E22         E33         E12
         141  2.4118E+00  8.0418E-01  9.6404E-01  2.7027E-03  2.9002E-01 -4.4710E-02  8.7622E-03 -3.7351E-03  0.0000E+00 -1.1625E-03
         141  2.2655E+00  8.0426E-01  9.6175E-01 -2.6110E-03  2.8774E-01 -5.0431E-02  8.7621E-03 -3.7746E-03  0.0000E+00 -1.3112E-03
         141  2.4128E+00  9.4848E-01  9.8377E-01  1.1131E-02  2.9847E-01 -4.3253E-02  8.9089E-03 -3.7354E-03  0.0000E+00 -1.1246E-03
         141  2.2666E+00  9.4855E-01  9.8149E-01  5.8158E-03  2.9619E-01 -4.8977E-02  8.9088E-03 -3.7749E-03  0.0000E+00 -1.2734E-03
  Element nb      COORD1      COORD2         S11         S22         S33         S12         E11         E22         E33         E12
         142  2.4141E+00  1.0541E+00  9.8890E-01 -2.5714E-03  2.9590E-01 -4.3779E-02  9.0090E-03 -3.8801E-03  0.0000E+00 -1.1383E-03
         142  2.2679E+00  1.0542E+00  9.8557E-01 -1.0308E-02  2.9258E-01 -4.8719E-02  9.0089E-03 -3.9375E-03  0.0000E+00 -1.2667E-03
         142  2.4166E+00  1.1983E+00  1.0059E+00  4.6154E-03  3.0316E-01 -4.1680E-02  9.1358E-03 -3.8811E-03  0.0000E+00 -1.0837E-03
         142  2.2705E+00  1.1984E+00  1.0026E+00 -3.1281E-03  2.9984E-01 -4.6624E-02  9.1357E-03 -3.9386E-03  0.0000E+00 -1.2122E-03
  Element nb      COORD1      COORD2         S11         S22         S33         S12         E11         E22         E33         E12
         143  2.4186E+00  1.3039E+00  1.0108E+00 -5.1197E-03  3.0171E-01 -3.8458E-02  9.2184E-03 -3.9888E-03  0.0000E+00 -9.9990E-04
         143  2.2726E+00  1.3040E+00  1.0073E+00 -1.3239E-02  2.9823E-01 -4.2304E-02  9.2184E-03 -4.0491E-03  0.0000E+00 -1.0999E-03
         143  2.4217E+00  1.4481E+00  1.0241E+00  4.1450E-04  3.0734E-01 -3.6245E-02  9.3174E-03 -3.9901E-03  0.0000E+00 -9.4237E-04
         143  2.2759E+00  1.4482E+00  1.0206E+00 -7.7138E-03  3.0386E-01 -4.0096E-02  9.3173E-03 -4.0504E-03  0.0000E+00 -1.0425E-03
  Element nb      COORD1      COORD2         S11         S22         S33         S12         E11         E22         E33         E12
         144  2.4241E+00  1.5537E+00  1.0287E+00 -5.2927E-03  3.0701E-01 -3.0921E-02  9.3815E-03 -4.0599E-03  0.0000E+00 -8.0396E-04
         144  2.2784E+00  1.5538E+00  1.0257E+00 -1.2277E-02  3.0402E-01 -3.3873E-02  9.3814E-03 -4.1118E-03  0.0000E+00 -8.8069E-04
         144  2.4275E+00  1.6979E+00  1.0388E+00 -1.0680E-03  3.1133E-01 -2.9012E-02  9.4575E-03 -4.0612E-03  0.0000E+00 -7.5432E-04
         144  2.2820E+00  1.6980E+00  1.0358E+00 -8.0611E-03  3.0833E-01 -3.1967E-02  9.4575E-03 -4.1131E-03  0.0000E+00 -8.3115E-04
  Element nb      COORD1      COORD2         S11         S22         S33         S12         E11         E22         E33         E12
         145  2.4300E+00  1.8035E+00  1.0433E+00 -4.0061E-03  3.1178E-01 -2.2663E-02  9.5094E-03 -4.1052E-03  0.0000E+00 -5.8924E-04
         145  2.2847E+00  1.8035E+00  1.0411E+00 -9.1908E-03  3.0956E-01 -2.5206E-02  9.5094E-03 -4.1437E-03  0.0000E+00 -6.5535E-04
         145  2.4335E+00  1.9477E+00  1.0521E+00 -3.4252E-04  3.1552E-01 -2.1253E-02  9.5751E-03 -4.1062E-03  0.0000E+00 -5.5258E-04
         145  2.2884E+00  1.9477E+00  1.0498E+00 -5.5341E-03  3.1329E-01 -2.3799E-02  9.5751E-03 -4.1447E-03  0.0000E+00 -6.1877E-04
  Element nb      COORD1      COORD2         S11         S22         S33         S12         E11         E22         E33         E12
         146  2.4361E+00  2.0533E+00  1.0567E+00 -2.3701E-03  3.1629E-01 -1.4096E-02  9.6249E-03 -4.1426E-03  0.0000E+00 -3.6649E-04
         146  2.2911E+00  2.0533E+00  1.0551E+00 -5.9765E-03  3.1474E-01 -1.6813E-02  9.6249E-03 -4.1694E-03  0.0000E+00 -4.3715E-04
         146  2.4397E+00  2.1975E+00  1.0661E+00  1.6011E-03  3.2031E-01 -1.3137E-02  9.6953E-03 -4.1432E-03  0.0000E+00 -3.4155E-04
         146  2.2949E+00  2.1975E+00  1.0646E+00 -2.0101E-03  3.1876E-01 -1.5858E-02  9.6953E-03 -4.1701E-03  0.0000E+00 -4.1231E-04
  Element nb      COORD1      COORD2         S11         S22         S33         S12         E11         E22         E33         E12
         147  2.4423E+00  2.3030E+00  1.0712E+00 -1.3270E-03  3.2097E-01 -4.4107E-03  9.7535E-03 -4.1899E-03  0.0000E+00 -1.1468E-04
         147  2.2977E+00  2.3030E+00  1.0699E+00 -4.4683E-03  3.1963E-01 -7.8219E-03  9.7535E-03 -4.2133E-03  0.0000E+00 -2.0337E-04
         147  2.4459E+00  2.4472E+00  1.0831E+00  3.7041E-03  3.2605E-01 -3.5991E-03  9.8420E-03 -4.1905E-03  0.0000E+00 -9.3578E-05
         147  2.3014E+00  2.4472E+00  1.0818E+00  5.5864E-04  3.2470E-01 -7.0151E-03  9.8420E-03 -4.2139E-03  0.0000E+00 -1.8239E-04
  Element nb      COORD1      COORD2         S11         S22         S33         S12         E11         E22         E33         E12
         148  2.1710E+00  3.0383E-01  9.0108E-01  1.3837E-02  2.7447E-01 -3.5512E-02  8.1459E-03 -3.3883E-03  0.0000E+00 -9.2331E-04
         148  2.0253E+00  3.0388E-01  9.0253E-01  1.7245E-02  2.7593E-01 -4.1490E-02  8.1458E-03 -3.3630E-03  0.0000E+00 -1.0787E-03
         148  2.1639E+00  4.4844E-01  9.2173E-01  2.2553E-02  2.8329E-01 -3.6188E-02  8.2998E-03 -3.3895E-03  0.0000E+00 -9.4089E-04
         148  2.0179E+00  4.4850E-01  9.2318E-01  2.5953E-02  2.8474E-01 -4.2151E-02  8.2997E-03 -3.3642E-03  0.0000E+00 -1.0959E-03
  Element nb      COORD1      COORD2         S11         S22         S33         S12         E11         E22         E33         E12
         149  2.1606E+00  5.5423E-01  9.2747E-01  2.3981E-03  2.7896E-01 -5.0375E-02  8.4306E-03 -3.5953E-03  0.0000E+00 -1.3097E-03
         149  2.0144E+00  5.5430E-01  9.2581E-01 -1.4410E-03  2.7731E-01 -5.8334E-02  8.4305E-03 -3.6238E-03  0.0000E+00 -1.5167E-03
         149  2.1587E+00  6.9864E-01  9.5499E-01  1.4234E-02  2.9077E-01 -4.9189E-02  8.6349E-03 -3.5949E-03  0.0000E+00 -1.2789E-03
         149  2.0124E+00  6.9871E-01  9.5334E-01  1.0398E-02  2.8912E-01 -5.7143E-02  8.6348E-03 -3.6234E-03  0.0000E+00 -1.4857E-03
  Element nb      COORD1      COORD2         S11         S22         S33         S12         E11         E22         E33         E12
         150  2.1584E+00  8.0431E-01  9.6185E-01 -7.0836E-03  2.8643E-01 -5.4411E-02  8.7805E-03 -3.8157E-03  0.0000E+00 -1.4147E-03
         150  2.0121E+00  8.0439E-01  9.5766E-01 -1.6835E-02  2.8225E-01 -6.1975E-02  8.7804E-03 -3.8881E-03  0.0000E+00 -1.6114E-03
         150  2.1595E+00  9.4861E-01  9.8794E-01  4.0334E-03  2.9759E-01 -5.1722E-02  8.9745E-03 -3.8162E-03  0.0000E+00 -1.3448E-03
         150  2.0133E+00  9.4868E-01  9.8374E-01 -5.7217E-03  2.9341E-01 -5.9288E-02  8.9744E-03 -3.8887E-03  0.0000E+00 -1.5415E-03
  Element nb      COORD1      COORD2         S11         S22         S33         S12         E11         E22         E33         E12
         151  2.1609E+00  1.0542E+00  9.9464E-01 -1.2579E-02  2.9462E-01 -4.9656E-02  9.1003E-03 -3.9936E-03  0.0000E+00 -1.2911E-03
         151  2.0147E+00  1.0543E+00  9.8934E-01 -2.4918E-02  2.8933E-01 -5.5491E-02  9.1002E-03 -4.0852E-03  0.0000E+00 -1.4428E-03
         151  2.1636E+00  1.1985E+00  1.0147E+00 -4.1635E-03  3.0316E-01 -4.6282E-02  9.2501E-03 -3.9952E-03  0.0000E+00 -1.2033E-03
         151  2.0175E+00  1.1985E+00  1.0094E+00 -1.6514E-02  2.9787E-01 -5.2123E-02  9.2500E-03 -4.0870E-03  0.0000E+00 -1.3552E-03
  Element nb      COORD1      COORD2         S11         S22         S33         S12         E11         E22         E33         E12
         152  2.1658E+00  1.3040E+00  1.0207E+00 -1.3802E-02  3.0206E-01 -4.0041E-02  9.3418E-03 -4.1062E-03  0.0000E+00 -1.0411E-03
         152  2.0199E+00  1.3041E+00  1.0156E+00 -2.5528E-02  2.9703E-01 -4.3963E-02  9.3418E-03 -4.1933E-03  0.0000E+00 -1.1430E-03
         152  2.1692E+00  1.4482E+00  1.0341E+00 -8.2566E-03  3.0776E-01 -3.6819E-02  9.4427E-03 -4.1082E-03  0.0000E+00 -9.5728E-04
         152  2.0234E+00  1.4483E+00  1.0291E+00 -1.9996E-02  3.0273E-01 -4.0746E-02  9.4427E-03 -4.1954E-03  0.0000E+00 -1.0594E-03
  Element nb      COORD1      COORD2         S11         S22         S33         S12         E11         E22         E33         E12
         153  2.1718E+00  1.5538E+00  1.0393E+00 -1.1746E-02  3.0828E-01 -2.9170E-02  9.5038E-03 -4.1603E-03  0.0000E+00 -7.5842E-04
         153  2.0262E+00  1.5538E+00  1.0354E+00 -2.0951E-02  3.0433E-01 -3.1732E-02  9.5038E-03 -4.2287E-03  0.0000E+00 -8.2503E-04
         153  2.1755E+00  1.6980E+00  1.0481E+00 -8.1727E-03  3.1199E-01 -2.6628E-02  9.5699E-03 -4.1621E-03  0.0000E+00 -6.9234E-04
         153  2.0301E+00  1.6980E+00  1.0442E+00 -1.7390E-02  3.0804E-01 -2.9194E-02  9.5698E-03 -4.2305E-03  0.0000E+00 -7.5904E-04
  Element nb      COORD1      COORD2         S11         S22         S33         S12         E11         E22         E33         E12
         154  2.1783E+00  1.8036E+00  1.0530E+00 -8.0273E-03  3.1349E-01 -1.9203E-02  9.6136E-03 -4.1797E-03  0.0000E+00 -4.9927E-04
         154  2.0330E+00  1.8036E+00  1.0504E+00 -1.4128E-02  3.1088E-01 -2.1267E-02  9.6136E-03 -4.2251E-03  0.0000E+00 -5.5293E-04
         154  2.1822E+00  1.9477E+00  1.0601E+00 -5.1140E-03  3.1650E-01 -1.7526E-02  9.6669E-03 -4.1809E-03  0.0000E+00 -4.5567E-04
         154  2.0371E+00  1.9478E+00  1.0575E+00 -1.1223E-02  3.1388E-01 -1.9592E-02  9.6669E-03 -4.2263E-03  0.0000E+00 -5.0940E-04
  Element nb      COORD1      COORD2         S11         S22         S33         S12         E11         E22         E33         E12
         155  2.1850E+00  2.0533E+00  1.0652E+00 -4.4107E-03  3.1822E-01 -1.0675E-02  9.7102E-03 -4.1943E-03  0.0000E+00 -2.7755E-04
         155  2.0401E+00  2.0533E+00  1.0637E+00 -7.8889E-03  3.1673E-01 -1.3178E-02  9.7101E-03 -4.2201E-03  0.0000E+00 -3.4263E-04
         155  2.1889E+00  2.1975E+00  1.0738E+00 -7.6588E-04  3.2192E-01 -9.7532E-03  9.7750E-03 -4.1950E-03  0.0000E+00 -2.5358E-04
         155  2.0442E+00  2.1975E+00  1.0723E+00 -4.2487E-03  3.2043E-01 -1.2259E-02  9.7750E-03 -4.2208E-03  0.0000E+00 -3.1874E-04
  Element nb      COORD1      COORD2         S11         S22         S33         S12         E11         E22         E33         E12
         156  2.1918E+00  2.3030E+00  1.0797E+00 -2.4914E-03  3.2317E-01 -2.5631E-03  9.8352E-03 -4.2336E-03  0.0000E+00 -6.6640E-05
         156  2.0472E+00  2.3030E+00  1.0787E+00 -4.7794E-03  3.2219E-01 -6.4040E-03  9.8352E-03 -4.2506E-03  0.0000E+00 -1.6650E-04
         156  2.1957E+00  2.4472E+00  1.0931E+00  3.1983E-03  3.2889E-01 -2.0151E-03  9.9349E-03 -4.2340E-03  0.0000E+00 -5.2392E-05
         156  2.0513E+00  2.4472E+00  1.0921E+00  9.0749E-04  3.2791E-01 -5.8613E-03  9.9349E-03 -4.2511E-03  0.0000E+00 -1.5239E-04
  Element nb      COORD1      COORD2         S11         S22         S33         S12         E11         E22         E33         E12
         157  1.9187E+00  3.0392E-01  8.7244E-01  6.0166E-03  2.6354E-01 -4.9062E-02  7.9158E-03 -3.3478E-03  0.0000E+00 -1.2756E-03
         157  1.7730E+00  3.0397E-01  8.7368E-01  8.9119E-03  2.6478E-01 -5.8503E-02  7.9157E-03 -3.3262E-03  0.0000E+00 -1.5211E-03
         157  1.9110E+00  4.4855E-01  9.0511E-01  1.9893E-02  2.7750E-01 -4.9386E-02  8.1589E-03 -3.3489E-03  0.0000E+00 -1.2840E-03
         157  1.7650E+00  4.4861E-01  9.0634E-01  2.2780E-02  2.7874E-01 -5.8804E-02  8.1588E-03 -3.3274E-03  0.0000E+00 -1.5289E-03
  Element nb      COORD1      COORD2         S11         S22         S33         S12         E11         E22         E33         E12
         158  1.9074E+00  5.5435E-01  9.1398E-01 -1.0266E-02  2.7111E-01 -6.6338E-02  8.3573E-03 -3.6579E-03  0.0000E+00 -1.7248E-03
         158  1.7612E+00  5.5442E-01  9.1027E-01 -1.8897E-02  2.6741E-01 -7.8019E-02  8.3571E-03 -3.7220E-03  0.0000E+00 -2.0285E-03
         158  1.9053E+00  6.9877E-01  9.5439E-01  7.1541E-03  2.8846E-01 -6.3739E-02  8.6571E-03 -3.6570E-03  0.0000E+00 -1.6572E-03
         158  1.7590E+00  6.9884E-01  9.5068E-01 -1.4717E-03  2.8476E-01 -7.5411E-02  8.6569E-03 -3.7210E-03  0.0000E+00 -1.9607E-03
  Element nb      COORD1      COORD2         S11         S22         S33         S12         E11         E22         E33         E12
         159  1.9050E+00  8.0444E-01  9.6420E-01 -2.1944E-02  2.8268E-01 -6.6628E-02  8.8598E-03 -3.9601E-03  0.0000E+00 -1.7323E-03
         159  1.7587E+00  8.0452E-01  9.5707E-01 -3.8538E-02  2.7556E-01 -7.6560E-02  8.8597E-03 -4.0833E-03  0.0000E+00 -1.9906E-03
         159  1.9062E+00  9.4873E-01  9.9843E-01 -7.3869E-03  2.9731E-01 -6.2035E-02  9.1145E-03 -3.9611E-03  0.0000E+00 -1.6129E-03
         159  1.7599E+00  9.4881E-01  9.9130E-01 -2.3987E-02  2.9019E-01 -7.1970E-02  9.1144E-03 -4.0843E-03  0.0000E+00 -1.8712E-03
  Element nb      COORD1      COORD2         S11         S22         S33         S12         E11         E22         E33         E12
         160  1.9077E+00  1.0543E+00  1.0071E+00 -2.6733E-02  2.9411E-01 -5.5120E-02  9.2690E-03 -4.1710E-03  0.0000E+00 -1.4331E-03
         160  1.7615E+00  1.0544E+00  9.9927E-01 -4.5017E-02  2.8628E-01 -6.1641E-02  9.2689E-03 -4.3068E-03  0.0000E+00 -1.6027E-03
         160  1.9106E+00  1.1986E+00  1.0295E+00 -1.7441E-02  3.0361E-01 -5.0092E-02  9.4364E-03 -4.1737E-03  0.0000E+00 -1.3024E-03
         160  1.7646E+00  1.1986E+00  1.0216E+00 -3.5741E-02  2.9577E-01 -5.6620E-02  9.4363E-03 -4.3096E-03  0.0000E+00 -1.4721E-03
  Element nb      COORD1      COORD2         S11         S22         S33         S12         E11         E22         E33         E12
         161  1.9130E+00  1.3041E+00  1.0364E+00 -2.5307E-02  3.0334E-01 -3.9140E-02  9.5302E-03 -4.2724E-03  0.0000E+00 -1.0176E-03
         161  1.7671E+00  1.3042E+00  1.0298E+00 -4.0819E-02  2.9669E-01 -4.2589E-02  9.5301E-03 -4.3876E-03  0.0000E+00 -1.1073E-03
         161  1.9167E+00  1.4483E+00  1.0482E+00 -2.0587E-02  3.0828E-01 -3.4844E-02  9.6188E-03 -4.2753E-03  0.0000E+00 -9.0595E-04
         161  1.7710E+00  1.4484E+00  1.0415E+00 -3.6116E-02  3.0163E-01 -3.8297E-02  9.6188E-03 -4.3906E-03  0.0000E+00 -9.9572E-04
  Element nb      COORD1      COORD2         S11         S22         S33         S12         E11         E22         E33         E12
         162  1.9196E+00  1.5539E+00  1.0537E+00 -1.9830E-02  3.1017E-01 -2.4083E-02  9.6663E-03 -4.2900E-03  0.0000E+00 -6.2617E-04
         162  1.7739E+00  1.5539E+00  1.0491E+00 -3.0704E-02  3.0551E-01 -2.5666E-02  9.6663E-03 -4.3708E-03  0.0000E+00 -6.6731E-04
         162  1.9236E+00  1.6981E+00  1.0591E+00 -1.7781E-02  3.1239E-01 -2.1048E-02  9.7071E-03 -4.2923E-03  0.0000E+00 -5.4725E-04
         162  1.7782E+00  1.6981E+00  1.0544E+00 -2.8670E-02  3.0773E-01 -2.2632E-02  9.7070E-03 -4.3731E-03  0.0000E+00 -5.8844E-04
  Element nb      COORD1      COORD2         S11         S22         S33         S12         E11         E22         E33         E12
         163  1.9266E+00  1.8036E+00  1.0640E+00 -1.2845E-02  3.1533E-01 -1.2536E-02  9.7321E-03 -4.2663E-03  0.0000E+00 -3.2593E-04
         163  1.7813E+00  1.8037E+00  1.0612E+00 -1.9183E-02  3.1262E-01 -1.3605E-02  9.7321E-03 -4.3134E-03  0.0000E+00 -3.5374E-04
         163  1.9308E+00  1.9478E+00  1.0676E+00 -1.1435E-02  3.1685E-01 -1.0768E-02  9.7597E-03 -4.2677E-03  0.0000E+00 -2.7996E-04
         163  1.7857E+00  1.9478E+00  1.0649E+00 -1.7783E-02  3.1413E-01 -1.1838E-02  9.7597E-03 -4.3148E-03  0.0000E+00 -3.0780E-04
  Element nb      COORD1      COORD2         S11         S22         S33         S12         E11         E22         E33         E12
         164  1.9339E+00  2.0533E+00  1.0726E+00 -6.7434E-03  3.1977E-01 -4.8263E-03  9.7873E-03 -4.2446E-03  0.0000E+00 -1.2548E-04
         164  1.7890E+00  2.0534E+00  1.0714E+00 -9.5076E-03  3.1858E-01 -6.6623E-03  9.7873E-03 -4.2652E-03  0.0000E+00 -1.7322E-04
         164  1.9382E+00  2.1975E+00  1.0790E+00 -4.0823E-03  3.2247E-01 -4.0940E-03  9.8348E-03 -4.2452E-03  0.0000E+00 -1.0644E-04
         164  1.7934E+00  2.1975E+00  1.0778E+00 -6.8502E-03  3.2129E-01 -5.9325E-03  9.8348E-03 -4.2658E-03  0.0000E+00 -1.5424E-04
  Element nb      COORD1      COORD2         S11         S22         S33         S12         E11         E22         E33         E12
         165  1.9413E+00  2.3031E+00  1.0851E+00 -3.7744E-03  3.2440E-01  2.9714E-04  9.8892E-03 -4.2663E-03  0.0000E+00  7.7256E-06
         165  1.7967E+00  2.3031E+00  1.0848E+00 -4.5825E-03  3.2405E-01 -3.5994E-03  9.8892E-03 -4.2723E-03  0.0000E+00 -9.3583E-05
         165  1.9456E+00  2.4472E+00  1.0987E+00  2.0365E-03  3.3022E-01  4.1205E-04  9.9903E-03 -4.2664E-03  0.0000E+00  1.0713E-05
         165  1.8012E+00  2.4472E+00  1.0984E+00  1.2276E-03  3.2988E-01 -3.4899E-03  9.9903E-03 -4.2724E-03  0.0000E+00 -9.0737E-05
  Element nb      COORD1      COORD2         S11         S22         S33         S12         E11         E22         E33         E12
         166  1.6665E+00  3.0410E-01  8.3331E-01 -7.6161E-03  2.4771E-01 -7.0465E-02  7.6128E-03 -3.3192E-03  0.0000E+00 -1.8321E-03
         166  1.5210E+00  3.0440E-01  8.3355E-01 -6.8368E-03  2.4801E-01 -8.6085E-02  7.6120E-03 -3.3131E-03  0.0000E+00 -2.2382E-03
         166  1.6582E+00  4.4884E-01  8.8769E-01  1.5654E-02  2.7100E-01 -6.9812E-02  8.0170E-03 -3.3196E-03  0.0000E+00 -1.8151E-03
         166  1.5125E+00  4.4939E-01  8.8784E-01  1.6392E-02  2.7127E-01 -8.5405E-02  8.0154E-03 -3.3134E-03  0.0000E+00 -2.2205E-03
  Element nb      COORD1      COORD2         S11         S22         S33         S12         E11         E22         E33         E12
         167  1.6544E+00  5.5470E-01  9.0189E-01 -3.0422E-02  2.6144E-01 -8.9104E-02  8.3259E-03 -3.7942E-03  0.0000E+00 -2.3167E-03
         167  1.5085E+00  5.5541E-01  8.9395E-01 -4.8393E-02  2.5367E-01 -1.0648E-01  8.3237E-03 -3.9268E-03  0.0000E+00 -2.7684E-03
         167  1.6521E+00  6.9919E-01  9.6221E-01 -4.3450E-03  2.8736E-01 -8.3779E-02  8.7731E-03 -3.7922E-03  0.0000E+00 -2.1783E-03
         167  1.5062E+00  7.0007E-01  9.5420E-01 -2.2340E-02  2.7956E-01 -1.0115E-01  8.7704E-03 -3.9247E-03  0.0000E+00 -2.6299E-03
  Element nb      COORD1      COORD2         S11         S22         S33         S12         E11         E22         E33         E12
         168  1.6517E+00  8.0490E-01  9.7641E-01 -4.3249E-02  2.7995E-01 -8.0742E-02  9.0540E-03 -4.2016E-03  0.0000E+00 -2.0993E-03
         168  1.5058E+00  8.0586E-01  9.6474E-01 -6.9925E-02  2.6845E-01 -9.3284E-02  9.0519E-03 -4.3988E-03  0.0000E+00 -2.4254E-03
         168  1.6530E+00  9.4921E-01  1.0196E+00 -2.4939E-02  2.9839E-01 -7.3344E-02  9.3755E-03 -4.2033E-03  0.0000E+00 -1.9069E-03
         168  1.5072E+00  9.5022E-01  1.0079E+00 -5.1631E-02  2.8688E-01 -8.5893E-02  9.3732E-03 -4.4006E-03  0.0000E+00 -2.2332E-03
  Element nb      COORD1      COORD2         S11         S22         S33         S12         E11         E22         E33         E12
         169  1.6546E+00  1.0548E+00  1.0306E+00 -4.4998E-02  2.9569E-01 -5.7970E-02  9.5544E-03 -4.4290E-03  0.0000E+00 -1.5072E-03
         169  1.5089E+00  1.0558E+00  1.0198E+00 -6.9970E-02  2.8495E-01 -6.4321E-02  9.5532E-03 -4.6140E-03  0.0000E+00 -1.6723E-03
         169  1.6578E+00  1.1990E+00  1.0522E+00 -3.6179E-02  3.0482E-01 -5.1063E-02  9.7165E-03 -4.4330E-03  0.0000E+00 -1.3276E-03
         169  1.5121E+00  1.2000E+00  1.0414E+00 -6.1168E-02  2.9407E-01 -5.7417E-02  9.7154E-03 -4.6181E-03  0.0000E+00 -1.4928E-03
  Element nb      COORD1      COORD2         S11         S22         S33         S12         E11         E22         E33         E12
         170  1.6604E+00  1.3046E+00  1.0599E+00 -3.8682E-02  3.0637E-01 -3.3440E-02  9.7961E-03 -4.4857E-03  0.0000E+00 -8.6945E-04
         170  1.5148E+00  1.3055E+00  1.0523E+00 -5.6308E-02  2.9881E-01 -3.5367E-02  9.7958E-03 -4.6165E-03  0.0000E+00 -9.1954E-04
         170  1.6644E+00  1.4487E+00  1.0663E+00 -3.6351E-02  3.0898E-01 -2.8508E-02  9.8449E-03 -4.4893E-03  0.0000E+00 -7.4122E-04
         170  1.5189E+00  1.4496E+00  1.0587E+00 -5.3993E-02  3.0141E-01 -3.0435E-02  9.8445E-03 -4.6202E-03  0.0000E+00 -7.9130E-04
  Element nb      COORD1      COORD2         S11         S22         S33         S12         E11         E22         E33         E12
         171  1.6674E+00  1.5543E+00  1.0716E+00 -2.8453E-02  3.1296E-01 -1.4233E-02  9.8629E-03 -4.4383E-03  0.0000E+00 -3.7007E-04
         171  1.5221E+00  1.5551E+00  1.0672E+00 -3.8944E-02  3.0846E-01 -1.4083E-02  9.8629E-03 -4.5163E-03  0.0000E+00 -3.6615E-04
         171  1.6718E+00  1.6984E+00  1.0709E+00 -2.9018E-02  3.1257E-01 -1.1254E-02  9.8586E-03 -4.4407E-03  0.0000E+00 -2.9259E-04
         171  1.5266E+00  1.6992E+00  1.0664E+00 -3.9521E-02  3.0807E-01 -1.1101E-02  9.8586E-03 -4.5187E-03  0.0000E+00 -2.8863E-04
  Element nb      COORD1      COORD2         S11         S22         S33         S12         E11         E22         E33         E12
         172  1.6750E+00  1.8039E+00  1.0753E+00 -1.7629E-02  3.1729E-01 -2.0569E-03  9.8535E-03 -4.3539E-03  0.0000E+00 -5.3479E-05
         172  1.5300E+00  1.8046E+00  1.0731E+00 -2.2646E-02  3.1514E-01 -1.5925E-03  9.8536E-03 -4.3912E-03  0.0000E+00 -4.1406E-05
         172  1.6796E+00  1.9480E+00  1.0735E+00 -1.8488E-02  3.1652E-01 -6.1633E-04  9.8414E-03 -4.3551E-03  0.0000E+00 -1.6025E-05
         172  1.5347E+00  1.9486E+00  1.0714E+00 -2.3511E-02  3.1437E-01 -1.5052E-04  9.8414E-03 -4.3924E-03  0.0000E+00 -3.9136E-06
  Element nb      COORD1      COORD2         S11         S22         S33         S12         E11         E22         E33         E12
         173  1.6829E+00  2.0536E+00  1.0779E+00 -8.9153E-03  3.2070E-01  3.5908E-03  9.8437E-03 -4.2849E-03  0.0000E+00  9.3360E-05
         173  1.5381E+00  2.0541E+00  1.0774E+00 -1.0046E-02  3.2021E-01  2.9113E-03  9.8436E-03 -4.2933E-03  0.0000E+00  7.5693E-05
         173  1.6875E+00  2.1977E+00  1.0803E+00 -7.9376E-03  3.2169E-01  3.8899E-03  9.8612E-03 -4.2852E-03  0.0000E+00  1.0114E-04
         173  1.5429E+00  2.1981E+00  1.0798E+00 -9.0690E-03  3.2121E-01  3.2098E-03  9.8612E-03 -4.2936E-03  0.0000E+00  8.3456E-05
  Element nb      COORD1      COORD2         S11         S22         S33         S12         E11         E22         E33         E12
         174  1.6909E+00  2.3032E+00  1.0858E+00 -4.9285E-03  3.2425E-01  4.1087E-03  9.8997E-03 -4.2793E-03  0.0000E+00  1.0683E-04
         174  1.5464E+00  2.3035E+00  1.0863E+00 -3.5943E-03  3.2482E-01  7.3053E-04  9.8995E-03 -4.2693E-03  0.0000E+00  1.8994E-05
         174  1.6955E+00  2.4473E+00  1.0976E+00  1.6468E-04  3.2932E-01  3.6184E-03  9.9872E-03 -4.2790E-03  0.0000E+00  9.4077E-05
         174  1.5511E+00  2.4473E+00  1.0981E+00  1.5079E-03  3.2989E-01  2.3641E-04  9.9872E-03 -4.2690E-03  0.0000E+00  6.1466E-06
  Element nb      COORD1      COORD2         S11         S22         S33         S12         E11         E22         E33         E12
         175  1.4146E+00  3.0562E-01  7.8089E-01 -3.2206E-02  2.2461E-01 -1.0511E-01  7.2317E-03 -3.3386E-03  0.0000E+00 -2.7328E-03
         175  1.2692E+00  3.0867E-01  7.7514E-01 -4.1828E-02  2.1999E-01 -1.3246E-01  7.2169E-03 -3.4037E-03  0.0000E+00 -3.4439E-03
         175  1.4060E+00  4.5122E-01  8.7790E-01  9.7973E-03  2.6631E-01 -1.0094E-01  7.9507E-03 -3.3347E-03  0.0000E+00 -2.6245E-03
         175  1.2608E+00  4.5566E-01  8.7121E-01 -2.4627E-04  2.6129E-01 -1.2839E-01  7.9289E-03 -3.3999E-03  0.0000E+00 -3.3380E-03
  Element nb      COORD1      COORD2         S11         S22         S33         S12         E11         E22         E33         E12
         176  1.4021E+00  5.5756E-01  9.0074E-01 -6.1062E-02  2.5190E-01 -1.1967E-01  8.4349E-03 -4.0686E-03  0.0000E+00 -3.1113E-03
         176  1.2571E+00  5.6273E-01  8.8280E-01 -9.6922E-02  2.3576E-01 -1.4524E-01  8.4115E-03 -4.3249E-03  0.0000E+00 -3.7763E-03
         176  1.3998E+00  7.0249E-01  9.8978E-01 -2.2464E-02  2.9019E-01 -1.0935E-01  9.0946E-03 -4.0646E-03  0.0000E+00 -2.8432E-03
         176  1.2551E+00  7.0825E-01  9.7144E-01 -5.8562E-02  2.7386E-01 -1.3503E-01  9.0685E-03 -4.3215E-03  0.0000E+00 -3.5108E-03
  Element nb      COORD1      COORD2         S11         S22         S33         S12         E11         E22         E33         E12
         177  1.3995E+00  8.0839E-01  1.0107E+00 -7.0724E-02  2.8199E-01 -9.3019E-02  9.4730E-03 -4.5853E-03  0.0000E+00 -2.4185E-03
         177  1.2550E+00  8.1436E-01  9.9114E-01 -1.1267E-01  2.6354E-01 -1.0681E-01  9.4588E-03 -4.8907E-03  0.0000E+00 -2.7770E-03
         177  1.4010E+00  9.5278E-01  1.0571E+00 -5.1169E-02  3.0178E-01 -8.1400E-02  9.8191E-03 -4.5883E-03  0.0000E+00 -2.1164E-03
         177  1.2566E+00  9.5873E-01  1.0375E+00 -9.3163E-02  2.8331E-01 -9.5206E-02  9.8048E-03 -4.8941E-03  0.0000E+00 -2.4754E-03
  Element nb      COORD1      COORD2         S11         S22         S33         S12         E11         E22         E33         E12
         178  1.4027E+00  1.0584E+00  1.0713E+00 -6.4481E-02  3.0204E-01 -5.2489E-02  1.0000E-02 -4.7647E-03  0.0000E+00 -1.3647E-03
         178  1.2584E+00  1.0642E+00  1.0592E+00 -9.1838E-02  2.9020E-01 -5.6009E-02  9.9967E-03 -4.9665E-03  0.0000E+00 -1.4562E-03
         178  1.4060E+00  1.2024E+00  1.0822E+00 -6.0308E-02  3.0657E-01 -4.4825E-02  1.0083E-02 -4.7693E-03  0.0000E+00 -1.1655E-03
         178  1.2618E+00  1.2079E+00  1.0701E+00 -8.7670E-02  2.9473E-01 -4.8330E-02  1.0080E-02 -4.9712E-03  0.0000E+00 -1.2566E-03
  Element nb      COORD1      COORD2         S11         S22         S33         S12         E11         E22         E33         E12
         179  1.4087E+00  1.3078E+00  1.0905E+00 -5.0794E-02  3.1191E-01 -1.9575E-02  1.0122E-02 -4.7152E-03  0.0000E+00 -5.0895E-04
         179  1.2646E+00  1.3130E+00  1.0846E+00 -6.4921E-02  3.0590E-01 -1.8441E-02  1.0123E-02 -4.8207E-03  0.0000E+00 -4.7946E-04
         179  1.4129E+00  1.4517E+00  1.0859E+00 -5.3118E-02  3.0983E-01 -1.5501E-02  1.0089E-02 -4.7183E-03  0.0000E+00 -4.0302E-04
         179  1.2688E+00  1.4564E+00  1.0799E+00 -6.7257E-02  3.0380E-01 -1.4353E-02  1.0090E-02 -4.8238E-03  0.0000E+00 -3.7317E-04
  Element nb      COORD1      COORD2         S11         S22         S33         S12         E11         E22         E33         E12
         180  1.4161E+00  1.5570E+00  1.0908E+00 -3.5009E-02  3.1675E-01  1.4689E-03  1.0063E-02 -4.5729E-03  0.0000E+00  3.8190E-05
         180  1.2720E+00  1.5614E+00  1.0886E+00 -4.0726E-02  3.1437E-01  4.0993E-03  1.0065E-02 -4.6162E-03  0.0000E+00  1.0658E-04
         180  1.4207E+00  1.7008E+00  1.0814E+00 -3.9194E-02  3.1267E-01  3.2130E-03  9.9938E-03 -4.5742E-03  0.0000E+00  8.3537E-05
         180  1.2766E+00  1.7047E+00  1.0792E+00 -4.4927E-02  3.1027E-01  5.8503E-03  9.9957E-03 -4.6176E-03  0.0000E+00  1.5211E-04
  Element nb      COORD1      COORD2         S11         S22         S33         S12         E11         E22         E33         E12
         181  1.4242E+00  1.8061E+00  1.0847E+00 -2.0734E-02  3.1918E-01  1.1996E-02  9.9514E-03 -4.4189E-03  0.0000E+00  3.1190E-04
         181  1.2801E+00  1.8096E+00  1.0844E+00 -2.1819E-02  3.1877E-01  1.4337E-02  9.9529E-03 -4.4276E-03  0.0000E+00  3.7277E-04
         181  1.4289E+00  1.9499E+00  1.0765E+00 -2.4276E-02  3.1566E-01  1.2405E-02  9.8907E-03 -4.4192E-03  0.0000E+00  3.2254E-04
         181  1.2848E+00  1.9528E+00  1.0761E+00 -2.5375E-02  3.1523E-01  1.4749E-02  9.8919E-03 -4.4279E-03  0.0000E+00  3.8346E-04
  Element nb      COORD1      COORD2         S11         S22         S33         S12         E11         E22         E33         E12
         182  1.4324E+00  2.0552E+00  1.0793E+00 -1.0121E-02  3.2076E-01  1.3909E-02  9.8614E-03 -4.3015E-03  0.0000E+00  3.6162E-04
         182  1.2883E+00  2.0576E+00  1.0801E+00 -8.4506E-03  3.2149E-01  1.4740E-02  9.8617E-03 -4.2892E-03  0.0000E+00  3.8324E-04
         182  1.4372E+00  2.1989E+00  1.0765E+00 -1.1292E-02  3.1956E-01  1.3468E-02  9.8401E-03 -4.3011E-03  0.0000E+00  3.5017E-04
         182  1.2931E+00  2.2007E+00  1.0772E+00 -9.6276E-03  3.2028E-01  1.4297E-02  9.8404E-03 -4.2888E-03  0.0000E+00  3.7173E-04
  Element nb      COORD1      COORD2         S11         S22         S33         S12         E11         E22         E33         E12
         183  1.4407E+00  2.3040E+00  1.0802E+00 -5.5394E-03  3.2240E-01  8.3997E-03  9.8514E-03 -4.2632E-03  0.0000E+00  2.1839E-04
         183  1.2965E+00  2.3052E+00  1.0819E+00 -1.5604E-03  3.2409E-01  6.2543E-03  9.8509E-03 -4.2334E-03  0.0000E+00  1.6261E-04
         183  1.4454E+00  2.4475E+00  1.0877E+00 -2.2143E-03  3.2565E-01  7.1984E-03  9.9068E-03 -4.2622E-03  0.0000E+00  1.8716E-04
         183  1.3011E+00  2.4478E+00  1.0894E+00  1.7828E-03  3.2736E-01  5.0468E-03  9.9066E-03 -4.2325E-03  0.0000E+00  1.3122E-04
  Element nb      COORD1      COORD2         S11         S22         S33         S12         E11         E22         E33         E12
         184  1.1620E+00  3.1375E-01  7.1811E-01 -7.7248E-02  1.9226E-01 -1.6014E-01  6.8360E-03 -3.5036E-03  0.0000E+00 -4.1636E-03
         184  1.0147E+00  3.2459E-01  6.9305E-01 -1.1105E-01  1.7460E-01 -2.1103E-01  6.7399E-03 -3.7135E-03  0.0000E+00 -5.4868E-03
         184  1.1544E+00  4.6265E-01  9.0406E-01  3.6847E-03  2.7232E-01 -1.4894E-01  8.2126E-03 -3.4923E-03  0.0000E+00 -3.8725E-03
         184  1.0090E+00  4.7732E-01  8.7373E-01 -3.2738E-02  2.5230E-01 -2.0085E-01  8.0787E-03 -3.7055E-03  0.0000E+00 -5.2220E-03
  Element nb      COORD1      COORD2         S11         S22         S33         S12         E11         E22         E33         E12
         185  1.1512E+00  5.7060E-01  9.4355E-01 -1.0349E-01  2.5202E-01 -1.5462E-01  8.9899E-03 -4.6216E-03  0.0000E+00 -4.0200E-03
         185  1.0069E+00  5.8694E-01  8.9877E-01 -1.8442E-01  2.1431E-01 -1.8827E-01  8.8980E-03 -5.1834E-03  0.0000E+00 -4.8951E-03
         185  1.1498E+00  7.1661E-01  1.0561E+00 -5.4680E-02  3.0042E-01 -1.3212E-01  9.8235E-03 -4.6163E-03  0.0000E+00 -3.4352E-03
         185  1.0068E+00  7.3368E-01  1.0102E+00 -1.3663E-01  2.6208E-01 -1.6622E-01  9.7258E-03 -5.1831E-03  0.0000E+00 -4.3217E-03
  Element nb      COORD1      COORD2         S11         S22         S33         S12         E11         E22         E33         E12
         186  1.1500E+00  8.2280E-01  1.0892E+00 -9.6499E-02  2.9780E-01 -8.7149E-02  1.0288E-02 -5.1260E-03  0.0000E+00 -2.2659E-03
         186  1.0076E+00  8.3990E-01  1.0689E+00 -1.3999E-01  2.7867E-01 -9.3424E-02  1.0273E-02 -5.4426E-03  0.0000E+00 -2.4290E-03
         186  1.1518E+00  9.6692E-01  1.1060E+00 -8.9749E-02  3.0487E-01 -7.4894E-02  1.0414E-02 -5.1300E-03  0.0000E+00 -1.9472E-03
         186  1.0100E+00  9.8333E-01  1.0857E+00 -1.3336E-01  2.8570E-01 -8.1137E-02  1.0400E-02 -5.4478E-03  0.0000E+00 -2.1096E-03
  Element nb      COORD1      COORD2         S11         S22         S33         S12         E11         E22         E33         E12
         187  1.1538E+00  1.0721E+00  1.1248E+00 -7.8120E-02  3.1399E-01 -2.9872E-02  1.0540E-02 -5.0975E-03  0.0000E+00 -7.7668E-04
         187  1.0121E+00  1.0878E+00  1.1198E+00 -9.2520E-02  3.0818E-01 -2.6581E-02  1.0551E-02 -5.2091E-03  0.0000E+00 -6.9111E-04
         187  1.1572E+00  1.2152E+00  1.1114E+00 -8.4140E-02  3.0818E-01 -2.5481E-02  1.0442E-02 -5.1001E-03  0.0000E+00 -6.6251E-04
         187  1.0155E+00  1.2297E+00  1.1063E+00 -9.8596E-02  3.0231E-01 -2.2151E-02  1.0452E-02 -5.2118E-03  0.0000E+00 -5.7592E-04
  Element nb      COORD1      COORD2         S11         S22         S33         S12         E11         E22         E33         E12
         188  1.1599E+00  1.3199E+00  1.1215E+00 -5.5385E-02  3.1983E-01  4.7728E-03  1.0421E-02 -4.8778E-03  0.0000E+00  1.2409E-04
         188  1.0182E+00  1.3334E+00  1.1231E+00 -5.5364E-02  3.2032E-01  1.0612E-02  1.0436E-02 -4.8838E-03  0.0000E+00  2.7591E-04
         188  1.1641E+00  1.4626E+00  1.1010E+00 -6.4161E-02  3.1107E-01  5.1750E-03  1.0270E-02 -4.8780E-03  0.0000E+00  1.3455E-04
         188  1.0221E+00  1.4747E+00  1.1024E+00 -6.4231E-02  3.1146E-01  1.1012E-02  1.0283E-02 -4.8840E-03  0.0000E+00  2.8632E-04
  Element nb      COORD1      COORD2         S11         S22         S33         S12         E11         E22         E33         E12
         189  1.1673E+00  1.5670E+00  1.1056E+00 -3.5331E-02  3.2107E-01  2.2037E-02  1.0199E-02 -4.6333E-03  0.0000E+00  5.7295E-04
         189  1.0251E+00  1.5780E+00  1.1089E+00 -3.0384E-02  3.2355E-01  2.7452E-02  1.0209E-02 -4.6011E-03  0.0000E+00  7.1375E-04
         189  1.1718E+00  1.7096E+00  1.0872E+00 -4.3100E-02  3.1323E-01  2.0977E-02  1.0062E-02 -4.6323E-03  0.0000E+00  5.4541E-04
         189  1.0294E+00  1.7190E+00  1.0903E+00 -3.8245E-02  3.1561E-01  2.6373E-02  1.0071E-02 -4.6001E-03  0.0000E+00  6.8569E-04
  Element nb      COORD1      COORD2         S11         S22         S33         S12         E11         E22         E33         E12
         190  1.1751E+00  1.8139E+00  1.0887E+00 -1.9791E-02  3.2069E-01  2.7506E-02  9.9848E-03 -4.4262E-03  0.0000E+00  7.1516E-04
         190  1.0325E+00  1.8222E+00  1.0918E+00 -1.4216E-02  3.2328E-01  3.1627E-02  9.9909E-03 -4.3874E-03  0.0000E+00  8.2231E-04
         190  1.1798E+00  1.9563E+00  1.0749E+00 -2.5587E-02  3.1479E-01  2.6165E-02  9.8814E-03 -4.4250E-03  0.0000E+00  6.8029E-04
         190  1.0368E+00  1.9630E+00  1.0778E+00 -2.0089E-02  3.1731E-01  3.0263E-02  9.8863E-03 -4.3862E-03  0.0000E+00  7.8683E-04
  Element nb      COORD1      COORD2         S11         S22         S33         S12         E11         E22         E33         E12
         191  1.1832E+00  2.0605E+00  1.0752E+00 -9.2985E-03  3.1976E-01  2.4143E-02  9.8203E-03 -4.2778E-03  0.0000E+00  6.2772E-04
         191  1.0400E+00  2.0659E+00  1.0777E+00 -3.9278E-03  3.2214E-01  2.6551E-02  9.8226E-03 -4.2389E-03  0.0000E+00  6.9032E-04
         191  1.1878E+00  2.2027E+00  1.0672E+00 -1.2583E-02  3.1638E-01  2.2754E-02  9.7605E-03 -4.2765E-03  0.0000E+00  5.9159E-04
         191  1.0442E+00  2.2064E+00  1.0696E+00 -7.2643E-03  3.1871E-01  2.5139E-02  9.7621E-03 -4.2377E-03  0.0000E+00  6.5361E-04
  Element nb      COORD1      COORD2         S11         S22         S33         S12         E11         E22         E33         E12
         192  1.1911E+00  2.3065E+00  1.0676E+00 -5.1099E-03  3.1875E-01  1.2148E-02  9.7351E-03 -4.2101E-03  0.0000E+00  3.1584E-04
         192  1.0473E+00  2.3090E+00  1.0704E+00  1.5548E-03  3.2160E-01  1.1990E-02  9.7350E-03 -4.1606E-03  0.0000E+00  3.1175E-04
         192  1.1955E+00  2.4482E+00  1.0683E+00 -4.6306E-03  3.1911E-01  1.0294E-02  9.7399E-03 -4.2086E-03  0.0000E+00  2.6763E-04
         192  1.0513E+00  2.4488E+00  1.0712E+00  2.0252E-03  3.2196E-01  1.0113E-02  9.7399E-03 -4.1592E-03  0.0000E+00  2.6293E-04
  Element nb      COORD1      COORD2         S11         S22         S33         S12         E11         E22         E33         E12
         193  9.0284E-01  3.3602E-01  6.8575E-01 -1.6483E-01  1.5628E-01 -2.4712E-01  6.8832E-03 -4.1744E-03  0.0000E+00 -6.4251E-03
         193  7.4459E-01  3.5642E-01  5.8693E-01 -3.2011E-01  8.0045E-02 -3.3984E-01  6.5895E-03 -5.2020E-03  0.0000E+00 -8.8357E-03
         193  9.0083E-01  4.9257E-01  1.0223E+00 -1.8990E-02  3.0100E-01 -2.0261E-01  9.3773E-03 -4.1599E-03  0.0000E+00 -5.2679E-03
         193  7.5074E-01  5.1956E-01  9.0183E-01 -1.8955E-01  2.1368E-01 -3.0237E-01  8.9459E-03 -5.2421E-03  0.0000E+00 -7.8615E-03
  Element nb      COORD1      COORD2         S11         S22         S33         S12         E11         E22         E33         E12
         194  9.0062E-01  6.0351E-01  1.1142E+00 -1.3342E-01  2.9425E-01 -1.4361E-01  1.0660E-02 -5.5597E-03  0.0000E+00 -3.7339E-03
         194  7.5457E-01  6.3244E-01  1.0831E+00 -1.9759E-01  2.6564E-01 -1.5365E-01  1.0626E-02 -6.0220E-03  0.0000E+00 -3.9950E-03
         194  9.0207E-01  7.5005E-01  1.1372E+00 -1.2408E-01  3.0394E-01 -1.2557E-01  1.0833E-02 -5.5643E-03  0.0000E+00 -3.2648E-03
         194  7.5890E-01  7.7767E-01  1.1055E+00 -1.8951E-01  2.7480E-01 -1.3572E-01  1.0799E-02 -6.0360E-03  0.0000E+00 -3.5288E-03
  Element nb      COORD1      COORD2         S11         S22         S33         S12         E11         E22         E33         E12
         195  9.0363E-01  8.5578E-01  1.1828E+00 -1.0797E-01  3.2244E-01 -4.1988E-02  1.1184E-02 -5.5954E-03  0.0000E+00 -1.0917E-03
         195  7.6182E-01  8.8209E-01  1.1871E+00 -1.1016E-01  3.2308E-01 -3.2367E-02  1.1232E-02 -5.6321E-03  0.0000E+00 -8.4155E-04
         195  9.0643E-01  9.9812E-01  1.1483E+00 -1.2282E-01  3.0765E-01 -4.0389E-02  1.0929E-02 -5.5961E-03  0.0000E+00 -1.0501E-03
         195  7.6547E-01  1.0221E+00  1.1521E+00 -1.2525E-01  3.0806E-01 -3.0683E-02  1.0973E-02 -5.6331E-03  0.0000E+00 -7.9776E-04
  Element nb      COORD1      COORD2         S11         S22         S33         S12         E11         E22         E33         E12
         196  9.0871E-01  1.1017E+00  1.1713E+00 -7.2283E-02  3.2972E-01  1.1980E-02  1.0941E-02 -5.2260E-03  0.0000E+00  3.1149E-04
         196  7.6805E-01  1.1240E+00  1.1853E+00 -5.2409E-02  3.3986E-01  2.4736E-02  1.0991E-02 -5.0996E-03  0.0000E+00  6.4313E-04
         196  9.1213E-01  1.2423E+00  1.1302E+00 -8.9561E-02  3.1221E-01  7.4823E-03  1.0635E-02 -5.2230E-03  0.0000E+00  1.9454E-04
         196  7.7147E-01  1.2624E+00  1.1435E+00 -6.9966E-02  3.2207E-01  2.0168E-02  1.0679E-02 -5.0964E-03  0.0000E+00  5.2437E-04
  Element nb      COORD1      COORD2         S11         S22         S33         S12         E11         E22         E33         E12
         197  9.1477E-01  1.3450E+00  1.1393E+00 -4.4139E-02  3.2854E-01  3.5331E-02  1.0539E-02 -4.8448E-03  0.0000E+00  9.1859E-04
         197  7.7400E-01  1.3634E+00  1.1524E+00 -2.1633E-02  3.3923E-01  4.5499E-02  1.0571E-02 -4.6913E-03  0.0000E+00  1.1830E-03
         197  9.1856E-01  1.4850E+00  1.1074E+00 -5.7355E-02  3.1501E-01  2.9814E-02  1.0301E-02 -4.8408E-03  0.0000E+00  7.7517E-04
         197  7.7750E-01  1.5010E+00  1.1200E+00 -3.5106E-02  3.2546E-01  3.9874E-02  1.0329E-02 -4.6874E-03  0.0000E+00  1.0367E-03
  Element nb      COORD1      COORD2         S11         S22         S33         S12         E11         E22         E33         E12
         198  9.2140E-01  1.5873E+00  1.1094E+00 -2.4725E-02  3.2540E-01  4.2018E-02  1.0192E-02 -4.5517E-03  0.0000E+00  1.0925E-03
         198  7.8009E-01  1.6017E+00  1.1191E+00 -6.7454E-03  3.3371E-01  4.9324E-02  1.0210E-02 -4.4259E-03  0.0000E+00  1.2824E-03
         198  9.2538E-01  1.7269E+00  1.0865E+00 -3.4166E-02  3.1570E-01  3.7513E-02  1.0020E-02 -4.5482E-03  0.0000E+00  9.7534E-04
         198  7.8367E-01  1.7391E+00  1.0958E+00 -1.6385E-02  3.2382E-01  4.4727E-02  1.0035E-02 -4.4226E-03  0.0000E+00  1.1629E-03
  Element nb      COORD1      COORD2         S11         S22         S33         S12         E11         E22         E33         E12
         199  9.2832E-01  1.8291E+00  1.0849E+00 -1.2513E-02  3.2172E-01  3.9847E-02  9.9215E-03 -4.3450E-03  0.0000E+00  1.0360E-03
         199  7.8628E-01  1.8397E+00  1.0913E+00 -5.3781E-05  3.2737E-01  4.5050E-02  9.9311E-03 -4.2566E-03  0.0000E+00  1.1713E-03
         199  9.3235E-01  1.9685E+00  1.0684E+00 -1.9332E-02  3.1471E-01  3.6709E-02  9.7975E-03 -4.3425E-03  0.0000E+00  9.5443E-04
         199  7.8986E-01  1.9769E+00  1.0745E+00 -7.0188E-03  3.2024E-01  4.1846E-02  9.8051E-03 -4.2543E-03  0.0000E+00  1.0880E-03
  Element nb      COORD1      COORD2         S11         S22         S33         S12         E11         E22         E33         E12
         200  9.3528E-01  2.0704E+00  1.0650E+00 -5.4980E-03  3.1786E-01  3.1034E-02  9.7132E-03 -4.2036E-03  0.0000E+00  8.0689E-04
         200  7.9244E-01  2.0772E+00  1.0692E+00  3.1763E-03  3.2173E-01  3.4831E-02  9.7177E-03 -4.1411E-03  0.0000E+00  9.0561E-04
         200  9.3922E-01  2.2094E+00  1.0528E+00 -1.0546E-02  3.1268E-01  2.8838E-02  9.6217E-03 -4.2019E-03  0.0000E+00  7.4980E-04
         200  7.9590E-01  2.2140E+00  1.0568E+00 -1.9794E-03  3.1645E-01  3.2589E-02  9.6248E-03 -4.1396E-03  0.0000E+00  8.4731E-04
  Element nb      COORD1      COORD2         S11         S22         S33         S12         E11         E22         E33         E12
         201  9.4204E-01  2.3110E+00  1.0488E+00 -3.2525E-03  3.1367E-01  1.3907E-02  9.5570E-03 -4.1200E-03  0.0000E+00  3.6158E-04
         201  7.9837E-01  2.3139E+00  1.0527E+00  5.3842E-03  3.1742E-01  1.6424E-02  9.5583E-03 -4.0564E-03  0.0000E+00  4.2701E-04
         201  9.4579E-01  2.4494E+00  1.0408E+00 -6.5293E-03  3.1027E-01  1.1658E-02  9.4964E-03 -4.1184E-03  0.0000E+00  3.0312E-04
         201  8.0163E-01  2.4501E+00  1.0445E+00  2.0291E-03  3.1395E-01  1.4132E-02  9.4967E-03 -4.0550E-03  0.0000E+00  3.6742E-04
